Zn O 
 1.0000000000000000
    12.9434373059188896    0.0000000000000000   -0.0000000000000000
    -6.4717186529594422   11.2093455192169777    0.0000000000000000
     0.0000000000000000    0.0000000000000000   10.4494240522104125
 Zn  O  
  64  64
Direct
  0.0833333333333340  0.1666666666666660  0.0003664804682780
  0.0833333333333340  0.1666666666666660  0.5003664804682780
  0.0833333333333340  0.4166666666666660  0.0003664804682780
  0.0833333333333340  0.4166666666666660  0.5003664804682780
  0.0833333333333340  0.6666666666666660  0.0003664804682780
  0.0833333333333340  0.6666666666666660  0.5003664804682780
  0.0833333333333339  0.9166666666666659  0.0003664804682780
  0.0833333333333339  0.9166666666666659  0.5003664804682780
  0.3333333333333340  0.1666666666666660  0.0003664804682780
  0.3333333333333340  0.1666666666666660  0.5003664804682780
  0.3333333333333340  0.4166666666666660  0.0003664804682780
  0.3333333333333340  0.4166666666666660  0.5003664804682780
  0.3333333333333340  0.6666666666666660  0.0003664804682780
  0.3333333333333340  0.6666666666666660  0.5003664804682780
  0.3333333333333339  0.9166666666666659  0.0003664804682780
  0.3333333333333339  0.9166666666666659  0.5003664804682780
  0.5833333333333340  0.1666666666666660  0.0003664804682780
  0.5833333333333340  0.1666666666666660  0.5003664804682780
  0.5833333333333340  0.4166666666666660  0.0003664804682780
  0.5833333333333340  0.4166666666666660  0.5003664804682780
  0.5833333333333340  0.6666666666666660  0.0003664804682780
  0.5833333333333340  0.6666666666666660  0.5003664804682780
  0.5833333333333340  0.9166666666666659  0.0003664804682780
  0.5833333333333340  0.9166666666666659  0.5003664804682780
  0.8333333333333340  0.1666666666666660  0.0003664804682780
  0.8333333333333340  0.1666666666666660  0.5003664804682780
  0.8333333333333340  0.4166666666666660  0.0003664804682780
  0.8333333333333340  0.4166666666666660  0.5003664804682780
  0.8333333333333340  0.6666666666666660  0.0003664804682780
  0.8333333333333340  0.6666666666666660  0.5003664804682780
  0.8333333333333340  0.9166666666666659  0.0003664804682780
  0.8333333333333340  0.9166666666666659  0.5003664804682780
  0.1666666666666660  0.0833333333333340  0.2503664804682780
  0.1666666666666660  0.0833333333333340  0.7503664804682780
  0.1666666666666660  0.3333333333333340  0.2503664804682780
  0.1666666666666660  0.3333333333333340  0.7503664804682780
  0.1666666666666660  0.5833333333333340  0.2503664804682780
  0.1666666666666660  0.5833333333333340  0.7503664804682780
  0.1666666666666660  0.8333333333333340  0.2503664804682780
  0.1666666666666660  0.8333333333333340  0.7503664804682780
  0.4166666666666661  0.0833333333333340  0.2503664804682780
  0.4166666666666661  0.0833333333333340  0.7503664804682780
  0.4166666666666661  0.3333333333333340  0.2503664804682780
  0.4166666666666661  0.3333333333333340  0.7503664804682780
  0.4166666666666661  0.5833333333333340  0.2503664804682780
  0.4166666666666661  0.5833333333333340  0.7503664804682780
  0.4166666666666661  0.8333333333333340  0.2503664804682780
  0.4166666666666661  0.8333333333333340  0.7503664804682780
  0.6666666666666660  0.0833333333333340  0.2503664804682780
  0.6666666666666660  0.0833333333333340  0.7503664804682780
  0.6666666666666660  0.3333333333333340  0.2503664804682780
  0.6666666666666660  0.3333333333333340  0.7503664804682780
  0.6666666666666660  0.5833333333333340  0.2503664804682780
  0.6666666666666660  0.5833333333333340  0.7503664804682780
  0.6666666666666660  0.8333333333333340  0.2503664804682780
  0.6666666666666660  0.8333333333333340  0.7503664804682780
  0.9166666666666660  0.0833333333333340  0.2503664804682780
  0.9166666666666660  0.0833333333333340  0.7503664804682780
  0.9166666666666660  0.3333333333333340  0.2503664804682780
  0.9166666666666660  0.3333333333333340  0.7503664804682780
  0.9166666666666660  0.5833333333333340  0.2503664804682780
  0.9166666666666660  0.5833333333333340  0.7503664804682780
  0.9166666666666660  0.8333333333333340  0.2503664804682780
  0.9166666666666660  0.8333333333333340  0.7503664804682780
  0.0833333333333340  0.1666666666666660  0.1897885195317230
  0.0833333333333340  0.1666666666666660  0.6897885195317232
  0.0833333333333340  0.4166666666666660  0.1897885195317230
  0.0833333333333340  0.4166666666666660  0.6897885195317232
  0.0833333333333340  0.6666666666666660  0.1897885195317230
  0.0833333333333340  0.6666666666666660  0.6897885195317232
  0.0833333333333339  0.9166666666666659  0.1897885195317230
  0.0833333333333339  0.9166666666666659  0.6897885195317232
  0.3333333333333340  0.1666666666666660  0.1897885195317230
  0.3333333333333340  0.1666666666666660  0.6897885195317232
  0.3333333333333340  0.4166666666666660  0.1897885195317230
  0.3333333333333340  0.4166666666666660  0.6897885195317232
  0.3333333333333340  0.6666666666666660  0.1897885195317230
  0.3333333333333340  0.6666666666666660  0.6897885195317232
  0.3333333333333339  0.9166666666666659  0.1897885195317230
  0.3333333333333339  0.9166666666666659  0.6897885195317232
  0.5833333333333340  0.1666666666666660  0.1897885195317230
  0.5833333333333340  0.1666666666666660  0.6897885195317232
  0.5833333333333340  0.4166666666666660  0.1897885195317230
  0.5833333333333340  0.4166666666666660  0.6897885195317232
  0.5833333333333340  0.6666666666666660  0.1897885195317230
  0.5833333333333340  0.6666666666666660  0.6897885195317232
  0.5833333333333340  0.9166666666666659  0.1897885195317230
  0.5833333333333340  0.9166666666666659  0.6897885195317232
  0.8333333333333340  0.1666666666666660  0.1897885195317230
  0.8333333333333340  0.1666666666666660  0.6897885195317232
  0.8333333333333340  0.4166666666666660  0.1897885195317230
  0.8333333333333340  0.4166666666666660  0.6897885195317232
  0.8333333333333340  0.6666666666666660  0.1897885195317230
  0.8333333333333340  0.6666666666666660  0.6897885195317232
  0.8333333333333340  0.9166666666666659  0.1897885195317230
  0.8333333333333340  0.9166666666666659  0.6897885195317232
  0.1666666666666660  0.0833333333333340  0.4397885195317230
  0.1666666666666660  0.0833333333333340  0.9397885195317232
  0.1666666666666660  0.3333333333333340  0.4397885195317230
  0.1666666666666660  0.3333333333333340  0.9397885195317232
  0.1666666666666660  0.5833333333333340  0.4397885195317230
  0.1666666666666660  0.5833333333333340  0.9397885195317232
  0.1666666666666660  0.8333333333333340  0.4397885195317230
  0.1666666666666660  0.8333333333333340  0.9397885195317232
  0.4166666666666661  0.0833333333333340  0.4397885195317230
  0.4166666666666661  0.0833333333333340  0.9397885195317232
  0.4166666666666661  0.3333333333333340  0.4397885195317230
  0.4166666666666661  0.3333333333333340  0.9397885195317232
  0.4166666666666661  0.5833333333333340  0.4397885195317230
  0.4166666666666661  0.5833333333333340  0.9397885195317232
  0.4166666666666661  0.8333333333333340  0.4397885195317230
  0.4166666666666661  0.8333333333333340  0.9397885195317232
  0.6666666666666660  0.0833333333333340  0.4397885195317230
  0.6666666666666660  0.0833333333333340  0.9397885195317232
  0.6666666666666660  0.3333333333333340  0.4397885195317230
  0.6666666666666660  0.3333333333333340  0.9397885195317232
  0.6666666666666660  0.5833333333333340  0.4397885195317230
  0.6666666666666660  0.5833333333333340  0.9397885195317232
  0.6666666666666660  0.8333333333333340  0.4397885195317230
  0.6666666666666660  0.8333333333333340  0.9397885195317232
  0.9166666666666660  0.0833333333333340  0.4397885195317230
  0.9166666666666660  0.0833333333333340  0.9397885195317232
  0.9166666666666660  0.3333333333333340  0.4397885195317230
  0.9166666666666660  0.3333333333333340  0.9397885195317232
  0.9166666666666660  0.5833333333333340  0.4397885195317230
  0.9166666666666660  0.5833333333333340  0.9397885195317232
  0.9166666666666660  0.8333333333333340  0.4397885195317230
  0.9166666666666660  0.8333333333333340  0.9397885195317232
