40
Mode    3 at (       0       0       0), Frequency (cm^-1) = -199.025, Time step =    1
  Ba   0.000000e+00   0.000000e+00   0.000000e+00
  Ti   1.992775e+00   1.992775e+00   1.992775e+00
   O  -1.266036e-18   1.992775e+00   1.992775e+00
   O   1.992775e+00  -8.659353e-19   1.992775e+00
   O   1.992775e+00   1.992775e+00   1.222262e-17
  Ba   0.000000e+00   0.000000e+00   3.985549e+00
  Ti   1.992775e+00   1.992775e+00   5.978324e+00
   O  -1.266036e-18   1.992775e+00   5.978324e+00
   O   1.992775e+00  -8.659353e-19   5.978324e+00
   O   1.992775e+00   1.992775e+00   3.985549e+00
  Ba   0.000000e+00   3.985549e+00   0.000000e+00
  Ti   1.992775e+00   5.978324e+00   1.992775e+00
   O  -1.266036e-18   5.978324e+00   1.992775e+00
   O   1.992775e+00   3.985549e+00   1.992775e+00
   O   1.992775e+00   5.978324e+00   1.222262e-17
  Ba   0.000000e+00   3.985549e+00   3.985549e+00
  Ti   1.992775e+00   5.978324e+00   5.978324e+00
   O  -1.266036e-18   5.978324e+00   5.978324e+00
   O   1.992775e+00   3.985549e+00   5.978324e+00
   O   1.992775e+00   5.978324e+00   3.985549e+00
  Ba   3.985549e+00   0.000000e+00   0.000000e+00
  Ti   5.978324e+00   1.992775e+00   1.992775e+00
   O   3.985549e+00   1.992775e+00   1.992775e+00
   O   5.978324e+00  -8.659353e-19   1.992775e+00
   O   5.978324e+00   1.992775e+00   1.222262e-17
  Ba   3.985549e+00   0.000000e+00   3.985549e+00
  Ti   5.978324e+00   1.992775e+00   5.978324e+00
   O   3.985549e+00   1.992775e+00   5.978324e+00
   O   5.978324e+00  -8.659353e-19   5.978324e+00
   O   5.978324e+00   1.992775e+00   3.985549e+00
  Ba   3.985549e+00   3.985549e+00   0.000000e+00
  Ti   5.978324e+00   5.978324e+00   1.992775e+00
   O   3.985549e+00   5.978324e+00   1.992775e+00
   O   5.978324e+00   3.985549e+00   1.992775e+00
   O   5.978324e+00   5.978324e+00   1.222262e-17
  Ba   3.985549e+00   3.985549e+00   3.985549e+00
  Ti   5.978324e+00   5.978324e+00   5.978324e+00
   O   3.985549e+00   5.978324e+00   5.978324e+00
   O   5.978324e+00   3.985549e+00   5.978324e+00
   O   5.978324e+00   5.978324e+00   3.985549e+00
40
Mode    3 at (       0       0       0), Frequency (cm^-1) = -199.025, Time step =    2
  Ba   1.259588e-05   8.615249e-06   1.216036e-04
  Ti   1.994870e+00   1.994208e+00   2.013003e+00
   O  -3.194608e-03   1.991686e+00   1.977414e+00
   O   1.991184e+00  -2.185028e-03   1.977414e+00
   O   1.991184e+00   1.991686e+00  -3.084152e-02
  Ba   1.259588e-05   8.615249e-06   3.985671e+00
  Ti   1.994870e+00   1.994208e+00   5.998553e+00
   O  -3.194608e-03   1.991686e+00   5.962963e+00
   O   1.991184e+00  -2.185028e-03   5.962963e+00
   O   1.991184e+00   1.991686e+00   3.954708e+00
  Ba   1.259588e-05   3.985558e+00   1.216036e-04
  Ti   1.994870e+00   5.979757e+00   2.013003e+00
   O  -3.194608e-03   5.977236e+00   1.977414e+00
   O   1.991184e+00   3.983364e+00   1.977414e+00
   O   1.991184e+00   5.977236e+00  -3.084152e-02
  Ba   1.259588e-05   3.985558e+00   3.985671e+00
  Ti   1.994870e+00   5.979757e+00   5.998553e+00
   O  -3.194608e-03   5.977236e+00   5.962963e+00
   O   1.991184e+00   3.983364e+00   5.962963e+00
   O   1.991184e+00   5.977236e+00   3.954708e+00
  Ba   3.985562e+00   8.615249e-06   1.216036e-04
  Ti   5.980419e+00   1.994208e+00   2.013003e+00
   O   3.982355e+00   1.991686e+00   1.977414e+00
   O   5.976733e+00  -2.185028e-03   1.977414e+00
   O   5.976733e+00   1.991686e+00  -3.084152e-02
  Ba   3.985562e+00   8.615249e-06   3.985671e+00
  Ti   5.980419e+00   1.994208e+00   5.998553e+00
   O   3.982355e+00   1.991686e+00   5.962963e+00
   O   5.976733e+00  -2.185028e-03   5.962963e+00
   O   5.976733e+00   1.991686e+00   3.954708e+00
  Ba   3.985562e+00   3.985558e+00   1.216036e-04
  Ti   5.980419e+00   5.979757e+00   2.013003e+00
   O   3.982355e+00   5.977236e+00   1.977414e+00
   O   5.976733e+00   3.983364e+00   1.977414e+00
   O   5.976733e+00   5.977236e+00  -3.084152e-02
  Ba   3.985562e+00   3.985558e+00   3.985671e+00
  Ti   5.980419e+00   5.979757e+00   5.998553e+00
   O   3.982355e+00   5.977236e+00   5.962963e+00
   O   5.976733e+00   3.983364e+00   5.962963e+00
   O   5.976733e+00   5.977236e+00   3.954708e+00
40
Mode    3 at (       0       0       0), Frequency (cm^-1) = -199.025, Time step =    3
  Ba   2.395879e-05   1.638718e-05   2.313039e-04
  Ti   1.996760e+00   1.995501e+00   2.031252e+00
   O  -6.076506e-03   1.990705e+00   1.963556e+00
   O   1.989748e+00  -4.156170e-03   1.963556e+00
   O   1.989748e+00   1.990705e+00  -5.866405e-02
  Ba   2.395879e-05   1.638718e-05   3.985781e+00
  Ti   1.996760e+00   1.995501e+00   6.016801e+00
   O  -6.076506e-03   1.990705e+00   5.949106e+00
   O   1.989748e+00  -4.156170e-03   5.949106e+00
   O   1.989748e+00   1.990705e+00   3.926885e+00
  Ba   2.395879e-05   3.985566e+00   2.313039e-04
  Ti   1.996760e+00   5.981050e+00   2.031252e+00
   O  -6.076506e-03   5.976254e+00   1.963556e+00
   O   1.989748e+00   3.981393e+00   1.963556e+00
   O   1.989748e+00   5.976254e+00  -5.866405e-02
  Ba   2.395879e-05   3.985566e+00   3.985781e+00
  Ti   1.996760e+00   5.981050e+00   6.016801e+00
   O  -6.076506e-03   5.976254e+00   5.949106e+00
   O   1.989748e+00   3.981393e+00   5.949106e+00
   O   1.989748e+00   5.976254e+00   3.926885e+00
  Ba   3.985573e+00   1.638718e-05   2.313039e-04
  Ti   5.982310e+00   1.995501e+00   2.031252e+00
   O   3.979473e+00   1.990705e+00   1.963556e+00
   O   5.975298e+00  -4.156170e-03   1.963556e+00
   O   5.975298e+00   1.990705e+00  -5.866405e-02
  Ba   3.985573e+00   1.638718e-05   3.985781e+00
  Ti   5.982310e+00   1.995501e+00   6.016801e+00
   O   3.979473e+00   1.990705e+00   5.949106e+00
   O   5.975298e+00  -4.156170e-03   5.949106e+00
   O   5.975298e+00   1.990705e+00   3.926885e+00
  Ba   3.985573e+00   3.985566e+00   2.313039e-04
  Ti   5.982310e+00   5.981050e+00   2.031252e+00
   O   3.979473e+00   5.976254e+00   1.963556e+00
   O   5.975298e+00   3.981393e+00   1.963556e+00
   O   5.975298e+00   5.976254e+00  -5.866405e-02
  Ba   3.985573e+00   3.985566e+00   3.985781e+00
  Ti   5.982310e+00   5.981050e+00   6.016801e+00
   O   3.979473e+00   5.976254e+00   5.949106e+00
   O   5.975298e+00   3.981393e+00   5.949106e+00
   O   5.975298e+00   5.976254e+00   3.926885e+00
40
Mode    3 at (       0       0       0), Frequency (cm^-1) = -199.025, Time step =    4
  Ba   3.297644e-05   2.255502e-05   3.183625e-04
  Ti   1.998260e+00   1.996527e+00   2.045734e+00
   O  -8.363593e-03   1.989926e+00   1.952559e+00
   O   1.988609e+00  -5.720477e-03   1.952559e+00
   O   1.988609e+00   1.989926e+00  -8.074413e-02
  Ba   3.297644e-05   2.255502e-05   3.985868e+00
  Ti   1.998260e+00   1.996527e+00   6.031283e+00
   O  -8.363593e-03   1.989926e+00   5.938109e+00
   O   1.988609e+00  -5.720477e-03   5.938109e+00
   O   1.988609e+00   1.989926e+00   3.904805e+00
  Ba   3.297644e-05   3.985572e+00   3.183625e-04
  Ti   1.998260e+00   5.982076e+00   2.045734e+00
   O  -8.363593e-03   5.975475e+00   1.952559e+00
   O   1.988609e+00   3.979829e+00   1.952559e+00
   O   1.988609e+00   5.975475e+00  -8.074413e-02
  Ba   3.297644e-05   3.985572e+00   3.985868e+00
  Ti   1.998260e+00   5.982076e+00   6.031283e+00
   O  -8.363593e-03   5.975475e+00   5.938109e+00
   O   1.988609e+00   3.979829e+00   5.938109e+00
   O   1.988609e+00   5.975475e+00   3.904805e+00
  Ba   3.985582e+00   2.255502e-05   3.183625e-04
  Ti   5.983810e+00   1.996527e+00   2.045734e+00
   O   3.977186e+00   1.989926e+00   1.952559e+00
   O   5.974158e+00  -5.720477e-03   1.952559e+00
   O   5.974158e+00   1.989926e+00  -8.074413e-02
  Ba   3.985582e+00   2.255502e-05   3.985868e+00
  Ti   5.983810e+00   1.996527e+00   6.031283e+00
   O   3.977186e+00   1.989926e+00   5.938109e+00
   O   5.974158e+00  -5.720477e-03   5.938109e+00
   O   5.974158e+00   1.989926e+00   3.904805e+00
  Ba   3.985582e+00   3.985572e+00   3.183625e-04
  Ti   5.983810e+00   5.982076e+00   2.045734e+00
   O   3.977186e+00   5.975475e+00   1.952559e+00
   O   5.974158e+00   3.979829e+00   1.952559e+00
   O   5.974158e+00   5.975475e+00  -8.074413e-02
  Ba   3.985582e+00   3.985572e+00   3.985868e+00
  Ti   5.983810e+00   5.982076e+00   6.031283e+00
   O   3.977186e+00   5.975475e+00   5.938109e+00
   O   5.974158e+00   3.979829e+00   5.938109e+00
   O   5.974158e+00   5.975475e+00   3.904805e+00
40
Mode    3 at (       0       0       0), Frequency (cm^-1) = -199.025, Time step =    5
  Ba   3.876613e-05   2.651501e-05   3.742575e-04
  Ti   1.999223e+00   1.997185e+00   2.055032e+00
   O  -9.831993e-03   1.989425e+00   1.945499e+00
   O   1.987878e+00  -6.724824e-03   1.945499e+00
   O   1.987878e+00   1.989425e+00  -9.492042e-02
  Ba   3.876613e-05   2.651501e-05   3.985924e+00
  Ti   1.999223e+00   1.997185e+00   6.040581e+00
   O  -9.831993e-03   1.989425e+00   5.931048e+00
   O   1.987878e+00  -6.724824e-03   5.931048e+00
   O   1.987878e+00   1.989425e+00   3.890629e+00
  Ba   3.876613e-05   3.985576e+00   3.742575e-04
  Ti   1.999223e+00   5.982735e+00   2.055032e+00
   O  -9.831993e-03   5.974975e+00   1.945499e+00
   O   1.987878e+00   3.978825e+00   1.945499e+00
   O   1.987878e+00   5.974975e+00  -9.492042e-02
  Ba   3.876613e-05   3.985576e+00   3.985924e+00
  Ti   1.999223e+00   5.982735e+00   6.040581e+00
   O  -9.831993e-03   5.974975e+00   5.931048e+00
   O   1.987878e+00   3.978825e+00   5.931048e+00
   O   1.987878e+00   5.974975e+00   3.890629e+00
  Ba   3.985588e+00   2.651501e-05   3.742575e-04
  Ti   5.984773e+00   1.997185e+00   2.055032e+00
   O   3.975717e+00   1.989425e+00   1.945499e+00
   O   5.973427e+00  -6.724824e-03   1.945499e+00
   O   5.973427e+00   1.989425e+00  -9.492042e-02
  Ba   3.985588e+00   2.651501e-05   3.985924e+00
  Ti   5.984773e+00   1.997185e+00   6.040581e+00
   O   3.975717e+00   1.989425e+00   5.931048e+00
   O   5.973427e+00  -6.724824e-03   5.931048e+00
   O   5.973427e+00   1.989425e+00   3.890629e+00
  Ba   3.985588e+00   3.985576e+00   3.742575e-04
  Ti   5.984773e+00   5.982735e+00   2.055032e+00
   O   3.975717e+00   5.974975e+00   1.945499e+00
   O   5.973427e+00   3.978825e+00   1.945499e+00
   O   5.973427e+00   5.974975e+00  -9.492042e-02
  Ba   3.985588e+00   3.985576e+00   3.985924e+00
  Ti   5.984773e+00   5.982735e+00   6.040581e+00
   O   3.975717e+00   5.974975e+00   5.931048e+00
   O   5.973427e+00   3.978825e+00   5.931048e+00
   O   5.973427e+00   5.974975e+00   3.890629e+00
40
Mode    3 at (       0       0       0), Frequency (cm^-1) = -199.025, Time step =    6
  Ba   4.076112e-05   2.787953e-05   3.935177e-04
  Ti   1.999555e+00   1.997412e+00   2.058236e+00
   O  -1.033797e-02   1.989253e+00   1.943066e+00
   O   1.987626e+00  -7.070898e-03   1.943066e+00
   O   1.987626e+00   1.989253e+00  -9.980524e-02
  Ba   4.076112e-05   2.787953e-05   3.985943e+00
  Ti   1.999555e+00   1.997412e+00   6.043785e+00
   O  -1.033797e-02   1.989253e+00   5.928615e+00
   O   1.987626e+00  -7.070898e-03   5.928615e+00
   O   1.987626e+00   1.989253e+00   3.885744e+00
  Ba   4.076112e-05   3.985577e+00   3.935177e-04
  Ti   1.999555e+00   5.982962e+00   2.058236e+00
   O  -1.033797e-02   5.974802e+00   1.943066e+00
   O   1.987626e+00   3.978478e+00   1.943066e+00
   O   1.987626e+00   5.974802e+00  -9.980524e-02
  Ba   4.076112e-05   3.985577e+00   3.985943e+00
  Ti   1.999555e+00   5.982962e+00   6.043785e+00
   O  -1.033797e-02   5.974802e+00   5.928615e+00
   O   1.987626e+00   3.978478e+00   5.928615e+00
   O   1.987626e+00   5.974802e+00   3.885744e+00
  Ba   3.985590e+00   2.787953e-05   3.935177e-04
  Ti   5.985105e+00   1.997412e+00   2.058236e+00
   O   3.975211e+00   1.989253e+00   1.943066e+00
   O   5.973175e+00  -7.070898e-03   1.943066e+00
   O   5.973175e+00   1.989253e+00  -9.980524e-02
  Ba   3.985590e+00   2.787953e-05   3.985943e+00
  Ti   5.985105e+00   1.997412e+00   6.043785e+00
   O   3.975211e+00   1.989253e+00   5.928615e+00
   O   5.973175e+00  -7.070898e-03   5.928615e+00
   O   5.973175e+00   1.989253e+00   3.885744e+00
  Ba   3.985590e+00   3.985577e+00   3.935177e-04
  Ti   5.985105e+00   5.982962e+00   2.058236e+00
   O   3.975211e+00   5.974802e+00   1.943066e+00
   O   5.973175e+00   3.978478e+00   1.943066e+00
   O   5.973175e+00   5.974802e+00  -9.980524e-02
  Ba   3.985590e+00   3.985577e+00   3.985943e+00
  Ti   5.985105e+00   5.982962e+00   6.043785e+00
   O   3.975211e+00   5.974802e+00   5.928615e+00
   O   5.973175e+00   3.978478e+00   5.928615e+00
   O   5.973175e+00   5.974802e+00   3.885744e+00
40
Mode    3 at (       0       0       0), Frequency (cm^-1) = -199.025, Time step =    7
  Ba   3.876613e-05   2.651501e-05   3.742575e-04
  Ti   1.999223e+00   1.997185e+00   2.055032e+00
   O  -9.831993e-03   1.989425e+00   1.945499e+00
   O   1.987878e+00  -6.724824e-03   1.945499e+00
   O   1.987878e+00   1.989425e+00  -9.492042e-02
  Ba   3.876613e-05   2.651501e-05   3.985924e+00
  Ti   1.999223e+00   1.997185e+00   6.040581e+00
   O  -9.831993e-03   1.989425e+00   5.931048e+00
   O   1.987878e+00  -6.724824e-03   5.931048e+00
   O   1.987878e+00   1.989425e+00   3.890629e+00
  Ba   3.876613e-05   3.985576e+00   3.742575e-04
  Ti   1.999223e+00   5.982735e+00   2.055032e+00
   O  -9.831993e-03   5.974975e+00   1.945499e+00
   O   1.987878e+00   3.978825e+00   1.945499e+00
   O   1.987878e+00   5.974975e+00  -9.492042e-02
  Ba   3.876613e-05   3.985576e+00   3.985924e+00
  Ti   1.999223e+00   5.982735e+00   6.040581e+00
   O  -9.831993e-03   5.974975e+00   5.931048e+00
   O   1.987878e+00   3.978825e+00   5.931048e+00
   O   1.987878e+00   5.974975e+00   3.890629e+00
  Ba   3.985588e+00   2.651501e-05   3.742575e-04
  Ti   5.984773e+00   1.997185e+00   2.055032e+00
   O   3.975717e+00   1.989425e+00   1.945499e+00
   O   5.973427e+00  -6.724824e-03   1.945499e+00
   O   5.973427e+00   1.989425e+00  -9.492042e-02
  Ba   3.985588e+00   2.651501e-05   3.985924e+00
  Ti   5.984773e+00   1.997185e+00   6.040581e+00
   O   3.975717e+00   1.989425e+00   5.931048e+00
   O   5.973427e+00  -6.724824e-03   5.931048e+00
   O   5.973427e+00   1.989425e+00   3.890629e+00
  Ba   3.985588e+00   3.985576e+00   3.742575e-04
  Ti   5.984773e+00   5.982735e+00   2.055032e+00
   O   3.975717e+00   5.974975e+00   1.945499e+00
   O   5.973427e+00   3.978825e+00   1.945499e+00
   O   5.973427e+00   5.974975e+00  -9.492042e-02
  Ba   3.985588e+00   3.985576e+00   3.985924e+00
  Ti   5.984773e+00   5.982735e+00   6.040581e+00
   O   3.975717e+00   5.974975e+00   5.931048e+00
   O   5.973427e+00   3.978825e+00   5.931048e+00
   O   5.973427e+00   5.974975e+00   3.890629e+00
40
Mode    3 at (       0       0       0), Frequency (cm^-1) = -199.025, Time step =    8
  Ba   3.297644e-05   2.255502e-05   3.183625e-04
  Ti   1.998260e+00   1.996527e+00   2.045734e+00
   O  -8.363593e-03   1.989926e+00   1.952559e+00
   O   1.988609e+00  -5.720477e-03   1.952559e+00
   O   1.988609e+00   1.989926e+00  -8.074413e-02
  Ba   3.297644e-05   2.255502e-05   3.985868e+00
  Ti   1.998260e+00   1.996527e+00   6.031283e+00
   O  -8.363593e-03   1.989926e+00   5.938109e+00
   O   1.988609e+00  -5.720477e-03   5.938109e+00
   O   1.988609e+00   1.989926e+00   3.904805e+00
  Ba   3.297644e-05   3.985572e+00   3.183625e-04
  Ti   1.998260e+00   5.982076e+00   2.045734e+00
   O  -8.363593e-03   5.975475e+00   1.952559e+00
   O   1.988609e+00   3.979829e+00   1.952559e+00
   O   1.988609e+00   5.975475e+00  -8.074413e-02
  Ba   3.297644e-05   3.985572e+00   3.985868e+00
  Ti   1.998260e+00   5.982076e+00   6.031283e+00
   O  -8.363593e-03   5.975475e+00   5.938109e+00
   O   1.988609e+00   3.979829e+00   5.938109e+00
   O   1.988609e+00   5.975475e+00   3.904805e+00
  Ba   3.985582e+00   2.255502e-05   3.183625e-04
  Ti   5.983810e+00   1.996527e+00   2.045734e+00
   O   3.977186e+00   1.989926e+00   1.952559e+00
   O   5.974158e+00  -5.720477e-03   1.952559e+00
   O   5.974158e+00   1.989926e+00  -8.074413e-02
  Ba   3.985582e+00   2.255502e-05   3.985868e+00
  Ti   5.983810e+00   1.996527e+00   6.031283e+00
   O   3.977186e+00   1.989926e+00   5.938109e+00
   O   5.974158e+00  -5.720477e-03   5.938109e+00
   O   5.974158e+00   1.989926e+00   3.904805e+00
  Ba   3.985582e+00   3.985572e+00   3.183625e-04
  Ti   5.983810e+00   5.982076e+00   2.045734e+00
   O   3.977186e+00   5.975475e+00   1.952559e+00
   O   5.974158e+00   3.979829e+00   1.952559e+00
   O   5.974158e+00   5.975475e+00  -8.074413e-02
  Ba   3.985582e+00   3.985572e+00   3.985868e+00
  Ti   5.983810e+00   5.982076e+00   6.031283e+00
   O   3.977186e+00   5.975475e+00   5.938109e+00
   O   5.974158e+00   3.979829e+00   5.938109e+00
   O   5.974158e+00   5.975475e+00   3.904805e+00
40
Mode    3 at (       0       0       0), Frequency (cm^-1) = -199.025, Time step =    9
  Ba   2.395879e-05   1.638718e-05   2.313039e-04
  Ti   1.996760e+00   1.995501e+00   2.031252e+00
   O  -6.076506e-03   1.990705e+00   1.963556e+00
   O   1.989748e+00  -4.156170e-03   1.963556e+00
   O   1.989748e+00   1.990705e+00  -5.866405e-02
  Ba   2.395879e-05   1.638718e-05   3.985781e+00
  Ti   1.996760e+00   1.995501e+00   6.016801e+00
   O  -6.076506e-03   1.990705e+00   5.949106e+00
   O   1.989748e+00  -4.156170e-03   5.949106e+00
   O   1.989748e+00   1.990705e+00   3.926885e+00
  Ba   2.395879e-05   3.985566e+00   2.313039e-04
  Ti   1.996760e+00   5.981050e+00   2.031252e+00
   O  -6.076506e-03   5.976254e+00   1.963556e+00
   O   1.989748e+00   3.981393e+00   1.963556e+00
   O   1.989748e+00   5.976254e+00  -5.866405e-02
  Ba   2.395879e-05   3.985566e+00   3.985781e+00
  Ti   1.996760e+00   5.981050e+00   6.016801e+00
   O  -6.076506e-03   5.976254e+00   5.949106e+00
   O   1.989748e+00   3.981393e+00   5.949106e+00
   O   1.989748e+00   5.976254e+00   3.926885e+00
  Ba   3.985573e+00   1.638718e-05   2.313039e-04
  Ti   5.982310e+00   1.995501e+00   2.031252e+00
   O   3.979473e+00   1.990705e+00   1.963556e+00
   O   5.975298e+00  -4.156170e-03   1.963556e+00
   O   5.975298e+00   1.990705e+00  -5.866405e-02
  Ba   3.985573e+00   1.638718e-05   3.985781e+00
  Ti   5.982310e+00   1.995501e+00   6.016801e+00
   O   3.979473e+00   1.990705e+00   5.949106e+00
   O   5.975298e+00  -4.156170e-03   5.949106e+00
   O   5.975298e+00   1.990705e+00   3.926885e+00
  Ba   3.985573e+00   3.985566e+00   2.313039e-04
  Ti   5.982310e+00   5.981050e+00   2.031252e+00
   O   3.979473e+00   5.976254e+00   1.963556e+00
   O   5.975298e+00   3.981393e+00   1.963556e+00
   O   5.975298e+00   5.976254e+00  -5.866405e-02
  Ba   3.985573e+00   3.985566e+00   3.985781e+00
  Ti   5.982310e+00   5.981050e+00   6.016801e+00
   O   3.979473e+00   5.976254e+00   5.949106e+00
   O   5.975298e+00   3.981393e+00   5.949106e+00
   O   5.975298e+00   5.976254e+00   3.926885e+00
40
Mode    3 at (       0       0       0), Frequency (cm^-1) = -199.025, Time step =   10
  Ba   1.259588e-05   8.615249e-06   1.216036e-04
  Ti   1.994870e+00   1.994208e+00   2.013003e+00
   O  -3.194608e-03   1.991686e+00   1.977414e+00
   O   1.991184e+00  -2.185028e-03   1.977414e+00
   O   1.991184e+00   1.991686e+00  -3.084152e-02
  Ba   1.259588e-05   8.615249e-06   3.985671e+00
  Ti   1.994870e+00   1.994208e+00   5.998553e+00
   O  -3.194608e-03   1.991686e+00   5.962963e+00
   O   1.991184e+00  -2.185028e-03   5.962963e+00
   O   1.991184e+00   1.991686e+00   3.954708e+00
  Ba   1.259588e-05   3.985558e+00   1.216036e-04
  Ti   1.994870e+00   5.979757e+00   2.013003e+00
   O  -3.194608e-03   5.977236e+00   1.977414e+00
   O   1.991184e+00   3.983364e+00   1.977414e+00
   O   1.991184e+00   5.977236e+00  -3.084152e-02
  Ba   1.259588e-05   3.985558e+00   3.985671e+00
  Ti   1.994870e+00   5.979757e+00   5.998553e+00
   O  -3.194608e-03   5.977236e+00   5.962963e+00
   O   1.991184e+00   3.983364e+00   5.962963e+00
   O   1.991184e+00   5.977236e+00   3.954708e+00
  Ba   3.985562e+00   8.615249e-06   1.216036e-04
  Ti   5.980419e+00   1.994208e+00   2.013003e+00
   O   3.982355e+00   1.991686e+00   1.977414e+00
   O   5.976733e+00  -2.185028e-03   1.977414e+00
   O   5.976733e+00   1.991686e+00  -3.084152e-02
  Ba   3.985562e+00   8.615249e-06   3.985671e+00
  Ti   5.980419e+00   1.994208e+00   5.998553e+00
   O   3.982355e+00   1.991686e+00   5.962963e+00
   O   5.976733e+00  -2.185028e-03   5.962963e+00
   O   5.976733e+00   1.991686e+00   3.954708e+00
  Ba   3.985562e+00   3.985558e+00   1.216036e-04
  Ti   5.980419e+00   5.979757e+00   2.013003e+00
   O   3.982355e+00   5.977236e+00   1.977414e+00
   O   5.976733e+00   3.983364e+00   1.977414e+00
   O   5.976733e+00   5.977236e+00  -3.084152e-02
  Ba   3.985562e+00   3.985558e+00   3.985671e+00
  Ti   5.980419e+00   5.979757e+00   5.998553e+00
   O   3.982355e+00   5.977236e+00   5.962963e+00
   O   5.976733e+00   3.983364e+00   5.962963e+00
   O   5.976733e+00   5.977236e+00   3.954708e+00
40
Mode    3 at (       0       0       0), Frequency (cm^-1) = -199.025, Time step =   11
  Ba   4.991798e-21   3.414258e-21   4.819201e-20
  Ti   1.992775e+00   1.992775e+00   1.992775e+00
   O   0.000000e+00   1.992775e+00   1.992775e+00
   O   1.992775e+00   0.000000e+00   1.992775e+00
   O   1.992775e+00   1.992775e+00  -2.444523e-17
  Ba   4.991798e-21   3.414258e-21   3.985549e+00
  Ti   1.992775e+00   1.992775e+00   5.978324e+00
   O   0.000000e+00   1.992775e+00   5.978324e+00
   O   1.992775e+00   0.000000e+00   5.978324e+00
   O   1.992775e+00   1.992775e+00   3.985549e+00
  Ba   4.991798e-21   3.985549e+00   4.819201e-20
  Ti   1.992775e+00   5.978324e+00   1.992775e+00
   O   0.000000e+00   5.978324e+00   1.992775e+00
   O   1.992775e+00   3.985549e+00   1.992775e+00
   O   1.992775e+00   5.978324e+00  -2.444523e-17
  Ba   4.991798e-21   3.985549e+00   3.985549e+00
  Ti   1.992775e+00   5.978324e+00   5.978324e+00
   O   0.000000e+00   5.978324e+00   5.978324e+00
   O   1.992775e+00   3.985549e+00   5.978324e+00
   O   1.992775e+00   5.978324e+00   3.985549e+00
  Ba   3.985549e+00   3.414258e-21   4.819201e-20
  Ti   5.978324e+00   1.992775e+00   1.992775e+00
   O   3.985549e+00   1.992775e+00   1.992775e+00
   O   5.978324e+00   0.000000e+00   1.992775e+00
   O   5.978324e+00   1.992775e+00  -2.444523e-17
  Ba   3.985549e+00   3.414258e-21   3.985549e+00
  Ti   5.978324e+00   1.992775e+00   5.978324e+00
   O   3.985549e+00   1.992775e+00   5.978324e+00
   O   5.978324e+00   0.000000e+00   5.978324e+00
   O   5.978324e+00   1.992775e+00   3.985549e+00
  Ba   3.985549e+00   3.985549e+00   4.819201e-20
  Ti   5.978324e+00   5.978324e+00   1.992775e+00
   O   3.985549e+00   5.978324e+00   1.992775e+00
   O   5.978324e+00   3.985549e+00   1.992775e+00
   O   5.978324e+00   5.978324e+00  -2.444523e-17
  Ba   3.985549e+00   3.985549e+00   3.985549e+00
  Ti   5.978324e+00   5.978324e+00   5.978324e+00
   O   3.985549e+00   5.978324e+00   5.978324e+00
   O   5.978324e+00   3.985549e+00   5.978324e+00
   O   5.978324e+00   5.978324e+00   3.985549e+00
40
Mode    3 at (       0       0       0), Frequency (cm^-1) = -199.025, Time step =   12
  Ba  -1.259588e-05  -8.615249e-06  -1.216036e-04
  Ti   1.990679e+00   1.991342e+00   1.972546e+00
   O   3.194608e-03   1.993863e+00   2.008136e+00
   O   1.994366e+00   2.185028e-03   2.008136e+00
   O   1.994366e+00   1.993863e+00   3.084152e-02
  Ba  -1.259588e-05  -8.615249e-06   3.985428e+00
  Ti   1.990679e+00   1.991342e+00   5.958096e+00
   O   3.194608e-03   1.993863e+00   5.993685e+00
   O   1.994366e+00   2.185028e-03   5.993685e+00
   O   1.994366e+00   1.993863e+00   4.016391e+00
  Ba  -1.259588e-05   3.985541e+00  -1.216036e-04
  Ti   1.990679e+00   5.976891e+00   1.972546e+00
   O   3.194608e-03   5.979412e+00   2.008136e+00
   O   1.994366e+00   3.987734e+00   2.008136e+00
   O   1.994366e+00   5.979412e+00   3.084152e-02
  Ba  -1.259588e-05   3.985541e+00   3.985428e+00
  Ti   1.990679e+00   5.976891e+00   5.958096e+00
   O   3.194608e-03   5.979412e+00   5.993685e+00
   O   1.994366e+00   3.987734e+00   5.993685e+00
   O   1.994366e+00   5.979412e+00   4.016391e+00
  Ba   3.985537e+00  -8.615249e-06  -1.216036e-04
  Ti   5.976229e+00   1.991342e+00   1.972546e+00
   O   3.988744e+00   1.993863e+00   2.008136e+00
   O   5.979915e+00   2.185028e-03   2.008136e+00
   O   5.979915e+00   1.993863e+00   3.084152e-02
  Ba   3.985537e+00  -8.615249e-06   3.985428e+00
  Ti   5.976229e+00   1.991342e+00   5.958096e+00
   O   3.988744e+00   1.993863e+00   5.993685e+00
   O   5.979915e+00   2.185028e-03   5.993685e+00
   O   5.979915e+00   1.993863e+00   4.016391e+00
  Ba   3.985537e+00   3.985541e+00  -1.216036e-04
  Ti   5.976229e+00   5.976891e+00   1.972546e+00
   O   3.988744e+00   5.979412e+00   2.008136e+00
   O   5.979915e+00   3.987734e+00   2.008136e+00
   O   5.979915e+00   5.979412e+00   3.084152e-02
  Ba   3.985537e+00   3.985541e+00   3.985428e+00
  Ti   5.976229e+00   5.976891e+00   5.958096e+00
   O   3.988744e+00   5.979412e+00   5.993685e+00
   O   5.979915e+00   3.987734e+00   5.993685e+00
   O   5.979915e+00   5.979412e+00   4.016391e+00
40
Mode    3 at (       0       0       0), Frequency (cm^-1) = -199.025, Time step =   13
  Ba  -2.395879e-05  -1.638718e-05  -2.313039e-04
  Ti   1.988789e+00   1.990049e+00   1.954298e+00
   O   6.076506e-03   1.994845e+00   2.021993e+00
   O   1.995801e+00   4.156170e-03   2.021993e+00
   O   1.995801e+00   1.994845e+00   5.866405e-02
  Ba  -2.395879e-05  -1.638718e-05   3.985318e+00
  Ti   1.988789e+00   1.990049e+00   5.939847e+00
   O   6.076506e-03   1.994845e+00   6.007542e+00
   O   1.995801e+00   4.156170e-03   6.007542e+00
   O   1.995801e+00   1.994845e+00   4.044213e+00
  Ba  -2.395879e-05   3.985533e+00  -2.313039e-04
  Ti   1.988789e+00   5.975598e+00   1.954298e+00
   O   6.076506e-03   5.980394e+00   2.021993e+00
   O   1.995801e+00   3.989706e+00   2.021993e+00
   O   1.995801e+00   5.980394e+00   5.866405e-02
  Ba  -2.395879e-05   3.985533e+00   3.985318e+00
  Ti   1.988789e+00   5.975598e+00   5.939847e+00
   O   6.076506e-03   5.980394e+00   6.007542e+00
   O   1.995801e+00   3.989706e+00   6.007542e+00
   O   1.995801e+00   5.980394e+00   4.044213e+00
  Ba   3.985525e+00  -1.638718e-05  -2.313039e-04
  Ti   5.974339e+00   1.990049e+00   1.954298e+00
   O   3.991626e+00   1.994845e+00   2.021993e+00
   O   5.981351e+00   4.156170e-03   2.021993e+00
   O   5.981351e+00   1.994845e+00   5.866405e-02
  Ba   3.985525e+00  -1.638718e-05   3.985318e+00
  Ti   5.974339e+00   1.990049e+00   5.939847e+00
   O   3.991626e+00   1.994845e+00   6.007542e+00
   O   5.981351e+00   4.156170e-03   6.007542e+00
   O   5.981351e+00   1.994845e+00   4.044213e+00
  Ba   3.985525e+00   3.985533e+00  -2.313039e-04
  Ti   5.974339e+00   5.975598e+00   1.954298e+00
   O   3.991626e+00   5.980394e+00   2.021993e+00
   O   5.981351e+00   3.989706e+00   2.021993e+00
   O   5.981351e+00   5.980394e+00   5.866405e-02
  Ba   3.985525e+00   3.985533e+00   3.985318e+00
  Ti   5.974339e+00   5.975598e+00   5.939847e+00
   O   3.991626e+00   5.980394e+00   6.007542e+00
   O   5.981351e+00   3.989706e+00   6.007542e+00
   O   5.981351e+00   5.980394e+00   4.044213e+00
40
Mode    3 at (       0       0       0), Frequency (cm^-1) = -199.025, Time step =   14
  Ba  -3.297644e-05  -2.255502e-05  -3.183625e-04
  Ti   1.987289e+00   1.989023e+00   1.939816e+00
   O   8.363593e-03   1.995624e+00   2.032990e+00
   O   1.996940e+00   5.720477e-03   2.032990e+00
   O   1.996940e+00   1.995624e+00   8.074413e-02
  Ba  -3.297644e-05  -2.255502e-05   3.985231e+00
  Ti   1.987289e+00   1.989023e+00   5.925365e+00
   O   8.363593e-03   1.995624e+00   6.018540e+00
   O   1.996940e+00   5.720477e-03   6.018540e+00
   O   1.996940e+00   1.995624e+00   4.066294e+00
  Ba  -3.297644e-05   3.985527e+00  -3.183625e-04
  Ti   1.987289e+00   5.974572e+00   1.939816e+00
   O   8.363593e-03   5.981173e+00   2.032990e+00
   O   1.996940e+00   3.991270e+00   2.032990e+00
   O   1.996940e+00   5.981173e+00   8.074413e-02
  Ba  -3.297644e-05   3.985527e+00   3.985231e+00
  Ti   1.987289e+00   5.974572e+00   5.925365e+00
   O   8.363593e-03   5.981173e+00   6.018540e+00
   O   1.996940e+00   3.991270e+00   6.018540e+00
   O   1.996940e+00   5.981173e+00   4.066294e+00
  Ba   3.985516e+00  -2.255502e-05  -3.183625e-04
  Ti   5.972838e+00   1.989023e+00   1.939816e+00
   O   3.993913e+00   1.995624e+00   2.032990e+00
   O   5.982490e+00   5.720477e-03   2.032990e+00
   O   5.982490e+00   1.995624e+00   8.074413e-02
  Ba   3.985516e+00  -2.255502e-05   3.985231e+00
  Ti   5.972838e+00   1.989023e+00   5.925365e+00
   O   3.993913e+00   1.995624e+00   6.018540e+00
   O   5.982490e+00   5.720477e-03   6.018540e+00
   O   5.982490e+00   1.995624e+00   4.066294e+00
  Ba   3.985516e+00   3.985527e+00  -3.183625e-04
  Ti   5.972838e+00   5.974572e+00   1.939816e+00
   O   3.993913e+00   5.981173e+00   2.032990e+00
   O   5.982490e+00   3.991270e+00   2.032990e+00
   O   5.982490e+00   5.981173e+00   8.074413e-02
  Ba   3.985516e+00   3.985527e+00   3.985231e+00
  Ti   5.972838e+00   5.974572e+00   5.925365e+00
   O   3.993913e+00   5.981173e+00   6.018540e+00
   O   5.982490e+00   3.991270e+00   6.018540e+00
   O   5.982490e+00   5.981173e+00   4.066294e+00
40
Mode    3 at (       0       0       0), Frequency (cm^-1) = -199.025, Time step =   15
  Ba  -3.876613e-05  -2.651501e-05  -3.742575e-04
  Ti   1.986326e+00   1.988364e+00   1.930518e+00
   O   9.831993e-03   1.996124e+00   2.040051e+00
   O   1.997672e+00   6.724824e-03   2.040051e+00
   O   1.997672e+00   1.996124e+00   9.492042e-02
  Ba  -3.876613e-05  -2.651501e-05   3.985175e+00
  Ti   1.986326e+00   1.988364e+00   5.916067e+00
   O   9.831993e-03   1.996124e+00   6.025600e+00
   O   1.997672e+00   6.724824e-03   6.025600e+00
   O   1.997672e+00   1.996124e+00   4.080470e+00
  Ba  -3.876613e-05   3.985523e+00  -3.742575e-04
  Ti   1.986326e+00   5.973913e+00   1.930518e+00
   O   9.831993e-03   5.981673e+00   2.040051e+00
   O   1.997672e+00   3.992274e+00   2.040051e+00
   O   1.997672e+00   5.981673e+00   9.492042e-02
  Ba  -3.876613e-05   3.985523e+00   3.985175e+00
  Ti   1.986326e+00   5.973913e+00   5.916067e+00
   O   9.831993e-03   5.981673e+00   6.025600e+00
   O   1.997672e+00   3.992274e+00   6.025600e+00
   O   1.997672e+00   5.981673e+00   4.080470e+00
  Ba   3.985511e+00  -2.651501e-05  -3.742575e-04
  Ti   5.971875e+00   1.988364e+00   1.930518e+00
   O   3.995381e+00   1.996124e+00   2.040051e+00
   O   5.983221e+00   6.724824e-03   2.040051e+00
   O   5.983221e+00   1.996124e+00   9.492042e-02
  Ba   3.985511e+00  -2.651501e-05   3.985175e+00
  Ti   5.971875e+00   1.988364e+00   5.916067e+00
   O   3.995381e+00   1.996124e+00   6.025600e+00
   O   5.983221e+00   6.724824e-03   6.025600e+00
   O   5.983221e+00   1.996124e+00   4.080470e+00
  Ba   3.985511e+00   3.985523e+00  -3.742575e-04
  Ti   5.971875e+00   5.973913e+00   1.930518e+00
   O   3.995381e+00   5.981673e+00   2.040051e+00
   O   5.983221e+00   3.992274e+00   2.040051e+00
   O   5.983221e+00   5.981673e+00   9.492042e-02
  Ba   3.985511e+00   3.985523e+00   3.985175e+00
  Ti   5.971875e+00   5.973913e+00   5.916067e+00
   O   3.995381e+00   5.981673e+00   6.025600e+00
   O   5.983221e+00   3.992274e+00   6.025600e+00
   O   5.983221e+00   5.981673e+00   4.080470e+00
40
Mode    3 at (       0       0       0), Frequency (cm^-1) = -199.025, Time step =   16
  Ba  -4.076112e-05  -2.787953e-05  -3.935177e-04
  Ti   1.985994e+00   1.988137e+00   1.927314e+00
   O   1.033797e-02   1.996296e+00   2.042484e+00
   O   1.997924e+00   7.070898e-03   2.042484e+00
   O   1.997924e+00   1.996296e+00   9.980524e-02
  Ba  -4.076112e-05  -2.787953e-05   3.985156e+00
  Ti   1.985994e+00   1.988137e+00   5.912863e+00
   O   1.033797e-02   1.996296e+00   6.028033e+00
   O   1.997924e+00   7.070898e-03   6.028033e+00
   O   1.997924e+00   1.996296e+00   4.085355e+00
  Ba  -4.076112e-05   3.985521e+00  -3.935177e-04
  Ti   1.985994e+00   5.973686e+00   1.927314e+00
   O   1.033797e-02   5.981846e+00   2.042484e+00
   O   1.997924e+00   3.992620e+00   2.042484e+00
   O   1.997924e+00   5.981846e+00   9.980524e-02
  Ba  -4.076112e-05   3.985521e+00   3.985156e+00
  Ti   1.985994e+00   5.973686e+00   5.912863e+00
   O   1.033797e-02   5.981846e+00   6.028033e+00
   O   1.997924e+00   3.992620e+00   6.028033e+00
   O   1.997924e+00   5.981846e+00   4.085355e+00
  Ba   3.985509e+00  -2.787953e-05  -3.935177e-04
  Ti   5.971544e+00   1.988137e+00   1.927314e+00
   O   3.995887e+00   1.996296e+00   2.042484e+00
   O   5.983473e+00   7.070898e-03   2.042484e+00
   O   5.983473e+00   1.996296e+00   9.980524e-02
  Ba   3.985509e+00  -2.787953e-05   3.985156e+00
  Ti   5.971544e+00   1.988137e+00   5.912863e+00
   O   3.995887e+00   1.996296e+00   6.028033e+00
   O   5.983473e+00   7.070898e-03   6.028033e+00
   O   5.983473e+00   1.996296e+00   4.085355e+00
  Ba   3.985509e+00   3.985521e+00  -3.935177e-04
  Ti   5.971544e+00   5.973686e+00   1.927314e+00
   O   3.995887e+00   5.981846e+00   2.042484e+00
   O   5.983473e+00   3.992620e+00   2.042484e+00
   O   5.983473e+00   5.981846e+00   9.980524e-02
  Ba   3.985509e+00   3.985521e+00   3.985156e+00
  Ti   5.971544e+00   5.973686e+00   5.912863e+00
   O   3.995887e+00   5.981846e+00   6.028033e+00
   O   5.983473e+00   3.992620e+00   6.028033e+00
   O   5.983473e+00   5.981846e+00   4.085355e+00
40
Mode    3 at (       0       0       0), Frequency (cm^-1) = -199.025, Time step =   17
  Ba  -3.876613e-05  -2.651501e-05  -3.742575e-04
  Ti   1.986326e+00   1.988364e+00   1.930518e+00
   O   9.831993e-03   1.996124e+00   2.040051e+00
   O   1.997672e+00   6.724824e-03   2.040051e+00
   O   1.997672e+00   1.996124e+00   9.492042e-02
  Ba  -3.876613e-05  -2.651501e-05   3.985175e+00
  Ti   1.986326e+00   1.988364e+00   5.916067e+00
   O   9.831993e-03   1.996124e+00   6.025600e+00
   O   1.997672e+00   6.724824e-03   6.025600e+00
   O   1.997672e+00   1.996124e+00   4.080470e+00
  Ba  -3.876613e-05   3.985523e+00  -3.742575e-04
  Ti   1.986326e+00   5.973913e+00   1.930518e+00
   O   9.831993e-03   5.981673e+00   2.040051e+00
   O   1.997672e+00   3.992274e+00   2.040051e+00
   O   1.997672e+00   5.981673e+00   9.492042e-02
  Ba  -3.876613e-05   3.985523e+00   3.985175e+00
  Ti   1.986326e+00   5.973913e+00   5.916067e+00
   O   9.831993e-03   5.981673e+00   6.025600e+00
   O   1.997672e+00   3.992274e+00   6.025600e+00
   O   1.997672e+00   5.981673e+00   4.080470e+00
  Ba   3.985511e+00  -2.651501e-05  -3.742575e-04
  Ti   5.971875e+00   1.988364e+00   1.930518e+00
   O   3.995381e+00   1.996124e+00   2.040051e+00
   O   5.983221e+00   6.724824e-03   2.040051e+00
   O   5.983221e+00   1.996124e+00   9.492042e-02
  Ba   3.985511e+00  -2.651501e-05   3.985175e+00
  Ti   5.971875e+00   1.988364e+00   5.916067e+00
   O   3.995381e+00   1.996124e+00   6.025600e+00
   O   5.983221e+00   6.724824e-03   6.025600e+00
   O   5.983221e+00   1.996124e+00   4.080470e+00
  Ba   3.985511e+00   3.985523e+00  -3.742575e-04
  Ti   5.971875e+00   5.973913e+00   1.930518e+00
   O   3.995381e+00   5.981673e+00   2.040051e+00
   O   5.983221e+00   3.992274e+00   2.040051e+00
   O   5.983221e+00   5.981673e+00   9.492042e-02
  Ba   3.985511e+00   3.985523e+00   3.985175e+00
  Ti   5.971875e+00   5.973913e+00   5.916067e+00
   O   3.995381e+00   5.981673e+00   6.025600e+00
   O   5.983221e+00   3.992274e+00   6.025600e+00
   O   5.983221e+00   5.981673e+00   4.080470e+00
40
Mode    3 at (       0       0       0), Frequency (cm^-1) = -199.025, Time step =   18
  Ba  -3.297644e-05  -2.255502e-05  -3.183625e-04
  Ti   1.987289e+00   1.989023e+00   1.939816e+00
   O   8.363593e-03   1.995624e+00   2.032990e+00
   O   1.996940e+00   5.720477e-03   2.032990e+00
   O   1.996940e+00   1.995624e+00   8.074413e-02
  Ba  -3.297644e-05  -2.255502e-05   3.985231e+00
  Ti   1.987289e+00   1.989023e+00   5.925365e+00
   O   8.363593e-03   1.995624e+00   6.018540e+00
   O   1.996940e+00   5.720477e-03   6.018540e+00
   O   1.996940e+00   1.995624e+00   4.066294e+00
  Ba  -3.297644e-05   3.985527e+00  -3.183625e-04
  Ti   1.987289e+00   5.974572e+00   1.939816e+00
   O   8.363593e-03   5.981173e+00   2.032990e+00
   O   1.996940e+00   3.991270e+00   2.032990e+00
   O   1.996940e+00   5.981173e+00   8.074413e-02
  Ba  -3.297644e-05   3.985527e+00   3.985231e+00
  Ti   1.987289e+00   5.974572e+00   5.925365e+00
   O   8.363593e-03   5.981173e+00   6.018540e+00
   O   1.996940e+00   3.991270e+00   6.018540e+00
   O   1.996940e+00   5.981173e+00   4.066294e+00
  Ba   3.985516e+00  -2.255502e-05  -3.183625e-04
  Ti   5.972838e+00   1.989023e+00   1.939816e+00
   O   3.993913e+00   1.995624e+00   2.032990e+00
   O   5.982490e+00   5.720477e-03   2.032990e+00
   O   5.982490e+00   1.995624e+00   8.074413e-02
  Ba   3.985516e+00  -2.255502e-05   3.985231e+00
  Ti   5.972838e+00   1.989023e+00   5.925365e+00
   O   3.993913e+00   1.995624e+00   6.018540e+00
   O   5.982490e+00   5.720477e-03   6.018540e+00
   O   5.982490e+00   1.995624e+00   4.066294e+00
  Ba   3.985516e+00   3.985527e+00  -3.183625e-04
  Ti   5.972838e+00   5.974572e+00   1.939816e+00
   O   3.993913e+00   5.981173e+00   2.032990e+00
   O   5.982490e+00   3.991270e+00   2.032990e+00
   O   5.982490e+00   5.981173e+00   8.074413e-02
  Ba   3.985516e+00   3.985527e+00   3.985231e+00
  Ti   5.972838e+00   5.974572e+00   5.925365e+00
   O   3.993913e+00   5.981173e+00   6.018540e+00
   O   5.982490e+00   3.991270e+00   6.018540e+00
   O   5.982490e+00   5.981173e+00   4.066294e+00
40
Mode    3 at (       0       0       0), Frequency (cm^-1) = -199.025, Time step =   19
  Ba  -2.395879e-05  -1.638718e-05  -2.313039e-04
  Ti   1.988789e+00   1.990049e+00   1.954298e+00
   O   6.076506e-03   1.994845e+00   2.021993e+00
   O   1.995801e+00   4.156170e-03   2.021993e+00
   O   1.995801e+00   1.994845e+00   5.866405e-02
  Ba  -2.395879e-05  -1.638718e-05   3.985318e+00
  Ti   1.988789e+00   1.990049e+00   5.939847e+00
   O   6.076506e-03   1.994845e+00   6.007542e+00
   O   1.995801e+00   4.156170e-03   6.007542e+00
   O   1.995801e+00   1.994845e+00   4.044213e+00
  Ba  -2.395879e-05   3.985533e+00  -2.313039e-04
  Ti   1.988789e+00   5.975598e+00   1.954298e+00
   O   6.076506e-03   5.980394e+00   2.021993e+00
   O   1.995801e+00   3.989706e+00   2.021993e+00
   O   1.995801e+00   5.980394e+00   5.866405e-02
  Ba  -2.395879e-05   3.985533e+00   3.985318e+00
  Ti   1.988789e+00   5.975598e+00   5.939847e+00
   O   6.076506e-03   5.980394e+00   6.007542e+00
   O   1.995801e+00   3.989706e+00   6.007542e+00
   O   1.995801e+00   5.980394e+00   4.044213e+00
  Ba   3.985525e+00  -1.638718e-05  -2.313039e-04
  Ti   5.974339e+00   1.990049e+00   1.954298e+00
   O   3.991626e+00   1.994845e+00   2.021993e+00
   O   5.981351e+00   4.156170e-03   2.021993e+00
   O   5.981351e+00   1.994845e+00   5.866405e-02
  Ba   3.985525e+00  -1.638718e-05   3.985318e+00
  Ti   5.974339e+00   1.990049e+00   5.939847e+00
   O   3.991626e+00   1.994845e+00   6.007542e+00
   O   5.981351e+00   4.156170e-03   6.007542e+00
   O   5.981351e+00   1.994845e+00   4.044213e+00
  Ba   3.985525e+00   3.985533e+00  -2.313039e-04
  Ti   5.974339e+00   5.975598e+00   1.954298e+00
   O   3.991626e+00   5.980394e+00   2.021993e+00
   O   5.981351e+00   3.989706e+00   2.021993e+00
   O   5.981351e+00   5.980394e+00   5.866405e-02
  Ba   3.985525e+00   3.985533e+00   3.985318e+00
  Ti   5.974339e+00   5.975598e+00   5.939847e+00
   O   3.991626e+00   5.980394e+00   6.007542e+00
   O   5.981351e+00   3.989706e+00   6.007542e+00
   O   5.981351e+00   5.980394e+00   4.044213e+00
40
Mode    3 at (       0       0       0), Frequency (cm^-1) = -199.025, Time step =   20
  Ba  -1.259588e-05  -8.615249e-06  -1.216036e-04
  Ti   1.990679e+00   1.991342e+00   1.972546e+00
   O   3.194608e-03   1.993863e+00   2.008136e+00
   O   1.994366e+00   2.185028e-03   2.008136e+00
   O   1.994366e+00   1.993863e+00   3.084152e-02
  Ba  -1.259588e-05  -8.615249e-06   3.985428e+00
  Ti   1.990679e+00   1.991342e+00   5.958096e+00
   O   3.194608e-03   1.993863e+00   5.993685e+00
   O   1.994366e+00   2.185028e-03   5.993685e+00
   O   1.994366e+00   1.993863e+00   4.016391e+00
  Ba  -1.259588e-05   3.985541e+00  -1.216036e-04
  Ti   1.990679e+00   5.976891e+00   1.972546e+00
   O   3.194608e-03   5.979412e+00   2.008136e+00
   O   1.994366e+00   3.987734e+00   2.008136e+00
   O   1.994366e+00   5.979412e+00   3.084152e-02
  Ba  -1.259588e-05   3.985541e+00   3.985428e+00
  Ti   1.990679e+00   5.976891e+00   5.958096e+00
   O   3.194608e-03   5.979412e+00   5.993685e+00
   O   1.994366e+00   3.987734e+00   5.993685e+00
   O   1.994366e+00   5.979412e+00   4.016391e+00
  Ba   3.985537e+00  -8.615249e-06  -1.216036e-04
  Ti   5.976229e+00   1.991342e+00   1.972546e+00
   O   3.988744e+00   1.993863e+00   2.008136e+00
   O   5.979915e+00   2.185028e-03   2.008136e+00
   O   5.979915e+00   1.993863e+00   3.084152e-02
  Ba   3.985537e+00  -8.615249e-06   3.985428e+00
  Ti   5.976229e+00   1.991342e+00   5.958096e+00
   O   3.988744e+00   1.993863e+00   5.993685e+00
   O   5.979915e+00   2.185028e-03   5.993685e+00
   O   5.979915e+00   1.993863e+00   4.016391e+00
  Ba   3.985537e+00   3.985541e+00  -1.216036e-04
  Ti   5.976229e+00   5.976891e+00   1.972546e+00
   O   3.988744e+00   5.979412e+00   2.008136e+00
   O   5.979915e+00   3.987734e+00   2.008136e+00
   O   5.979915e+00   5.979412e+00   3.084152e-02
  Ba   3.985537e+00   3.985541e+00   3.985428e+00
  Ti   5.976229e+00   5.976891e+00   5.958096e+00
   O   3.988744e+00   5.979412e+00   5.993685e+00
   O   5.979915e+00   3.987734e+00   5.993685e+00
   O   5.979915e+00   5.979412e+00   4.016391e+00
