40
Mode    1 at (     0.5     0.5     0.5), Frequency (cm^-1) = -76.4069, Time step =    1
  Sr   7.690351e-34   1.081988e-33   0.000000e+00
  Ti   1.948166e+00   1.948166e+00   1.948166e+00
   O   0.000000e+00   1.948166e+00   1.948166e+00
   O   1.948166e+00   3.407686e-34   1.948166e+00
   O   1.948166e+00   1.948166e+00   0.000000e+00
  Sr  -1.538070e-33  -2.163976e-33   3.896332e+00
  Ti   1.948166e+00   1.948166e+00   5.844498e+00
   O   4.014178e-34   1.948166e+00   5.844498e+00
   O   1.948166e+00  -6.815373e-34   5.844498e+00
   O   1.948166e+00   1.948166e+00   3.896332e+00
  Sr  -1.538070e-33   3.896332e+00   5.998670e-35
  Ti   1.948166e+00   5.844498e+00   1.948166e+00
   O   4.014178e-34   5.844498e+00   1.948166e+00
   O   1.948166e+00   3.896332e+00   1.948166e+00
   O   1.948166e+00   5.844498e+00   1.021325e-34
  Sr   2.307105e-33   3.896332e+00   3.896332e+00
  Ti   1.948166e+00   5.844498e+00   5.844498e+00
   O  -8.028356e-34   5.844498e+00   5.844498e+00
   O   1.948166e+00   3.896332e+00   5.844498e+00
   O   1.948166e+00   5.844498e+00   3.896332e+00
  Sr   3.896332e+00  -2.163976e-33   5.998670e-35
  Ti   5.844498e+00   1.948166e+00   1.948166e+00
   O   3.896332e+00   1.948166e+00   1.948166e+00
   O   5.844498e+00  -6.815373e-34   1.948166e+00
   O   5.844498e+00   1.948166e+00   1.021325e-34
  Sr   3.896332e+00   3.245965e-33   3.896332e+00
  Ti   5.844498e+00   1.948166e+00   5.844498e+00
   O   3.896332e+00   1.948166e+00   5.844498e+00
   O   5.844498e+00   1.022306e-33   5.844498e+00
   O   5.844498e+00   1.948166e+00   3.896332e+00
  Sr   3.896332e+00   3.896332e+00  -1.199734e-34
  Ti   5.844498e+00   5.844498e+00   1.948166e+00
   O   3.896332e+00   5.844498e+00   1.948166e+00
   O   5.844498e+00   3.896332e+00   1.948166e+00
   O   5.844498e+00   5.844498e+00  -2.042651e-34
  Sr   3.896332e+00   3.896332e+00   3.896332e+00
  Ti   5.844498e+00   5.844498e+00   5.844498e+00
   O   3.896332e+00   5.844498e+00   5.844498e+00
   O   5.844498e+00   3.896332e+00   5.844498e+00
   O   5.844498e+00   5.844498e+00   3.896332e+00
40
Mode    1 at (     0.5     0.5     0.5), Frequency (cm^-1) = -76.4069, Time step =    2
  Sr  -1.940518e-18  -2.730197e-18   1.513654e-19
  Ti   1.948166e+00   1.948166e+00   1.948166e+00
   O   1.012904e-18   1.946882e+00   1.917372e+00
   O   1.949450e+00  -8.598667e-19   1.950749e+00
   O   1.978959e+00   1.945583e+00   2.577126e-19
  Sr   1.940518e-18   2.730197e-18   3.896332e+00
  Ti   1.948166e+00   1.948166e+00   5.844498e+00
   O  -1.012904e-18   1.949450e+00   5.875291e+00
   O   1.946882e+00   8.598667e-19   5.841915e+00
   O   1.917372e+00   1.950749e+00   3.896332e+00
  Sr   1.940518e-18   3.896332e+00  -1.513654e-19
  Ti   1.948166e+00   5.844498e+00   1.948166e+00
   O  -1.012904e-18   5.845782e+00   1.978959e+00
   O   1.946882e+00   3.896332e+00   1.945583e+00
   O   1.917372e+00   5.847081e+00  -2.577126e-19
  Sr  -1.940518e-18   3.896332e+00   3.896332e+00
  Ti   1.948166e+00   5.844498e+00   5.844498e+00
   O   1.012904e-18   5.843214e+00   5.813704e+00
   O   1.949450e+00   3.896332e+00   5.847081e+00
   O   1.978959e+00   5.841915e+00   3.896332e+00
  Sr   3.896332e+00   2.730197e-18  -1.513654e-19
  Ti   5.844498e+00   1.948166e+00   1.948166e+00
   O   3.896332e+00   1.949450e+00   1.978959e+00
   O   5.843214e+00   8.598667e-19   1.945583e+00
   O   5.813704e+00   1.950749e+00  -2.577126e-19
  Sr   3.896332e+00  -2.730197e-18   3.896332e+00
  Ti   5.844498e+00   1.948166e+00   5.844498e+00
   O   3.896332e+00   1.946882e+00   5.813704e+00
   O   5.845782e+00  -8.598667e-19   5.847081e+00
   O   5.875291e+00   1.945583e+00   3.896332e+00
  Sr   3.896332e+00   3.896332e+00   1.513654e-19
  Ti   5.844498e+00   5.844498e+00   1.948166e+00
   O   3.896332e+00   5.843214e+00   1.917372e+00
   O   5.845782e+00   3.896332e+00   1.950749e+00
   O   5.875291e+00   5.841915e+00   2.577126e-19
  Sr   3.896332e+00   3.896332e+00   3.896332e+00
  Ti   5.844498e+00   5.844498e+00   5.844498e+00
   O   3.896332e+00   5.845782e+00   5.875291e+00
   O   5.843214e+00   3.896332e+00   5.841915e+00
   O   5.813704e+00   5.847081e+00   3.896332e+00
40
Mode    1 at (     0.5     0.5     0.5), Frequency (cm^-1) = -76.4069, Time step =    3
  Sr  -3.691085e-18  -5.193144e-18   2.879140e-19
  Ti   1.948166e+00   1.948166e+00   1.948166e+00
   O   1.926657e-18   1.945724e+00   1.889593e+00
   O   1.950608e+00  -1.635564e-18   1.953079e+00
   O   2.006739e+00   1.943253e+00   4.901985e-19
  Sr   3.691085e-18   5.193144e-18   3.896332e+00
  Ti   1.948166e+00   1.948166e+00   5.844498e+00
   O  -1.926657e-18   1.950608e+00   5.903071e+00
   O   1.945724e+00   1.635564e-18   5.839585e+00
   O   1.889593e+00   1.953079e+00   3.896332e+00
  Sr   3.691085e-18   3.896332e+00  -2.879140e-19
  Ti   1.948166e+00   5.844498e+00   1.948166e+00
   O  -1.926657e-18   5.846940e+00   2.006739e+00
   O   1.945724e+00   3.896332e+00   1.943253e+00
   O   1.889593e+00   5.849411e+00  -4.901985e-19
  Sr  -3.691085e-18   3.896332e+00   3.896332e+00
  Ti   1.948166e+00   5.844498e+00   5.844498e+00
   O   1.926657e-18   5.842056e+00   5.785925e+00
   O   1.950608e+00   3.896332e+00   5.849411e+00
   O   2.006739e+00   5.839585e+00   3.896332e+00
  Sr   3.896332e+00   5.193144e-18  -2.879140e-19
  Ti   5.844498e+00   1.948166e+00   1.948166e+00
   O   3.896332e+00   1.950608e+00   2.006739e+00
   O   5.842056e+00   1.635564e-18   1.943253e+00
   O   5.785925e+00   1.953079e+00  -4.901985e-19
  Sr   3.896332e+00  -5.193144e-18   3.896332e+00
  Ti   5.844498e+00   1.948166e+00   5.844498e+00
   O   3.896332e+00   1.945724e+00   5.785925e+00
   O   5.846940e+00  -1.635564e-18   5.849411e+00
   O   5.903071e+00   1.943253e+00   3.896332e+00
  Sr   3.896332e+00   3.896332e+00   2.879140e-19
  Ti   5.844498e+00   5.844498e+00   1.948166e+00
   O   3.896332e+00   5.842056e+00   1.889593e+00
   O   5.846940e+00   3.896332e+00   1.953079e+00
   O   5.903071e+00   5.839585e+00   4.901985e-19
  Sr   3.896332e+00   3.896332e+00   3.896332e+00
  Ti   5.844498e+00   5.844498e+00   5.844498e+00
   O   3.896332e+00   5.846940e+00   5.903071e+00
   O   5.842056e+00   3.896332e+00   5.839585e+00
   O   5.785925e+00   5.849411e+00   3.896332e+00
40
Mode    1 at (     0.5     0.5     0.5), Frequency (cm^-1) = -76.4069, Time step =    4
  Sr  -5.080342e-18  -7.147749e-18   3.962796e-19
  Ti   1.948166e+00   1.948166e+00   1.948166e+00
   O   2.651816e-18   1.944805e+00   1.867547e+00
   O   1.951527e+00  -2.251160e-18   1.954928e+00
   O   2.028784e+00   1.941404e+00   6.747003e-19
  Sr   5.080342e-18   7.147749e-18   3.896332e+00
  Ti   1.948166e+00   1.948166e+00   5.844498e+00
   O  -2.651816e-18   1.951527e+00   5.925116e+00
   O   1.944805e+00   2.251160e-18   5.837735e+00
   O   1.867547e+00   1.954928e+00   3.896332e+00
  Sr   5.080342e-18   3.896332e+00  -3.962796e-19
  Ti   1.948166e+00   5.844498e+00   1.948166e+00
   O  -2.651816e-18   5.847859e+00   2.028784e+00
   O   1.944805e+00   3.896332e+00   1.941404e+00
   O   1.867547e+00   5.851260e+00  -6.747003e-19
  Sr  -5.080342e-18   3.896332e+00   3.896332e+00
  Ti   1.948166e+00   5.844498e+00   5.844498e+00
   O   2.651816e-18   5.841136e+00   5.763879e+00
   O   1.951527e+00   3.896332e+00   5.851260e+00
   O   2.028784e+00   5.837735e+00   3.896332e+00
  Sr   3.896332e+00   7.147749e-18  -3.962796e-19
  Ti   5.844498e+00   1.948166e+00   1.948166e+00
   O   3.896332e+00   1.951527e+00   2.028784e+00
   O   5.841136e+00   2.251160e-18   1.941404e+00
   O   5.763879e+00   1.954928e+00  -6.747003e-19
  Sr   3.896332e+00  -7.147749e-18   3.896332e+00
  Ti   5.844498e+00   1.948166e+00   5.844498e+00
   O   3.896332e+00   1.944805e+00   5.763879e+00
   O   5.847859e+00  -2.251160e-18   5.851260e+00
   O   5.925116e+00   1.941404e+00   3.896332e+00
  Sr   3.896332e+00   3.896332e+00   3.962796e-19
  Ti   5.844498e+00   5.844498e+00   1.948166e+00
   O   3.896332e+00   5.841136e+00   1.867547e+00
   O   5.847859e+00   3.896332e+00   1.954928e+00
   O   5.925116e+00   5.837735e+00   6.747003e-19
  Sr   3.896332e+00   3.896332e+00   3.896332e+00
  Ti   5.844498e+00   5.844498e+00   5.844498e+00
   O   3.896332e+00   5.847859e+00   5.925116e+00
   O   5.841136e+00   3.896332e+00   5.837735e+00
   O   5.763879e+00   5.851260e+00   3.896332e+00
40
Mode    1 at (     0.5     0.5     0.5), Frequency (cm^-1) = -76.4069, Time step =    5
  Sr  -5.972300e-18  -8.402683e-18   4.658547e-19
  Ti   1.948166e+00   1.948166e+00   1.948166e+00
   O   3.117397e-18   1.944214e+00   1.853393e+00
   O   1.952117e+00  -2.646398e-18   1.956115e+00
   O   2.042939e+00   1.940216e+00   7.931578e-19
  Sr   5.972300e-18   8.402683e-18   3.896332e+00
  Ti   1.948166e+00   1.948166e+00   5.844498e+00
   O  -3.117397e-18   1.952117e+00   5.939271e+00
   O   1.944214e+00   2.646398e-18   5.836548e+00
   O   1.853393e+00   1.956115e+00   3.896332e+00
  Sr   5.972300e-18   3.896332e+00  -4.658547e-19
  Ti   1.948166e+00   5.844498e+00   1.948166e+00
   O  -3.117397e-18   5.848449e+00   2.042939e+00
   O   1.944214e+00   3.896332e+00   1.940216e+00
   O   1.853393e+00   5.852447e+00  -7.931578e-19
  Sr  -5.972300e-18   3.896332e+00   3.896332e+00
  Ti   1.948166e+00   5.844498e+00   5.844498e+00
   O   3.117397e-18   5.840546e+00   5.749725e+00
   O   1.952117e+00   3.896332e+00   5.852447e+00
   O   2.042939e+00   5.836548e+00   3.896332e+00
  Sr   3.896332e+00   8.402683e-18  -4.658547e-19
  Ti   5.844498e+00   1.948166e+00   1.948166e+00
   O   3.896332e+00   1.952117e+00   2.042939e+00
   O   5.840546e+00   2.646398e-18   1.940216e+00
   O   5.749725e+00   1.956115e+00  -7.931578e-19
  Sr   3.896332e+00  -8.402683e-18   3.896332e+00
  Ti   5.844498e+00   1.948166e+00   5.844498e+00
   O   3.896332e+00   1.944214e+00   5.749725e+00
   O   5.848449e+00  -2.646398e-18   5.852447e+00
   O   5.939271e+00   1.940216e+00   3.896332e+00
  Sr   3.896332e+00   3.896332e+00   4.658547e-19
  Ti   5.844498e+00   5.844498e+00   1.948166e+00
   O   3.896332e+00   5.840546e+00   1.853393e+00
   O   5.848449e+00   3.896332e+00   1.956115e+00
   O   5.939271e+00   5.836548e+00   7.931578e-19
  Sr   3.896332e+00   3.896332e+00   3.896332e+00
  Ti   5.844498e+00   5.844498e+00   5.844498e+00
   O   3.896332e+00   5.848449e+00   5.939271e+00
   O   5.840546e+00   3.896332e+00   5.836548e+00
   O   5.749725e+00   5.852447e+00   3.896332e+00
40
Mode    1 at (     0.5     0.5     0.5), Frequency (cm^-1) = -76.4069, Time step =    6
  Sr  -6.279648e-18  -8.835104e-18   4.898286e-19
  Ti   1.948166e+00   1.948166e+00   1.948166e+00
   O   3.277825e-18   1.944011e+00   1.848516e+00
   O   1.952321e+00  -2.782587e-18   1.956525e+00
   O   2.047816e+00   1.939807e+00   8.339755e-19
  Sr   6.279648e-18   8.835104e-18   3.896332e+00
  Ti   1.948166e+00   1.948166e+00   5.844498e+00
   O  -3.277825e-18   1.952321e+00   5.944148e+00
   O   1.944011e+00   2.782587e-18   5.836139e+00
   O   1.848516e+00   1.956525e+00   3.896332e+00
  Sr   6.279648e-18   3.896332e+00  -4.898286e-19
  Ti   1.948166e+00   5.844498e+00   1.948166e+00
   O  -3.277825e-18   5.848653e+00   2.047816e+00
   O   1.944011e+00   3.896332e+00   1.939807e+00
   O   1.848516e+00   5.852856e+00  -8.339755e-19
  Sr  -6.279648e-18   3.896332e+00   3.896332e+00
  Ti   1.948166e+00   5.844498e+00   5.844498e+00
   O   3.277825e-18   5.840343e+00   5.744848e+00
   O   1.952321e+00   3.896332e+00   5.852856e+00
   O   2.047816e+00   5.836139e+00   3.896332e+00
  Sr   3.896332e+00   8.835104e-18  -4.898286e-19
  Ti   5.844498e+00   1.948166e+00   1.948166e+00
   O   3.896332e+00   1.952321e+00   2.047816e+00
   O   5.840343e+00   2.782587e-18   1.939807e+00
   O   5.744848e+00   1.956525e+00  -8.339755e-19
  Sr   3.896332e+00  -8.835104e-18   3.896332e+00
  Ti   5.844498e+00   1.948166e+00   5.844498e+00
   O   3.896332e+00   1.944011e+00   5.744848e+00
   O   5.848653e+00  -2.782587e-18   5.852856e+00
   O   5.944148e+00   1.939807e+00   3.896332e+00
  Sr   3.896332e+00   3.896332e+00   4.898286e-19
  Ti   5.844498e+00   5.844498e+00   1.948166e+00
   O   3.896332e+00   5.840343e+00   1.848516e+00
   O   5.848653e+00   3.896332e+00   1.956525e+00
   O   5.944148e+00   5.836139e+00   8.339755e-19
  Sr   3.896332e+00   3.896332e+00   3.896332e+00
  Ti   5.844498e+00   5.844498e+00   5.844498e+00
   O   3.896332e+00   5.848653e+00   5.944148e+00
   O   5.840343e+00   3.896332e+00   5.836139e+00
   O   5.744848e+00   5.852856e+00   3.896332e+00
40
Mode    1 at (     0.5     0.5     0.5), Frequency (cm^-1) = -76.4069, Time step =    7
  Sr  -5.972300e-18  -8.402683e-18   4.658547e-19
  Ti   1.948166e+00   1.948166e+00   1.948166e+00
   O   3.117397e-18   1.944214e+00   1.853393e+00
   O   1.952117e+00  -2.646398e-18   1.956115e+00
   O   2.042939e+00   1.940216e+00   7.931578e-19
  Sr   5.972300e-18   8.402683e-18   3.896332e+00
  Ti   1.948166e+00   1.948166e+00   5.844498e+00
   O  -3.117397e-18   1.952117e+00   5.939271e+00
   O   1.944214e+00   2.646398e-18   5.836548e+00
   O   1.853393e+00   1.956115e+00   3.896332e+00
  Sr   5.972300e-18   3.896332e+00  -4.658547e-19
  Ti   1.948166e+00   5.844498e+00   1.948166e+00
   O  -3.117397e-18   5.848449e+00   2.042939e+00
   O   1.944214e+00   3.896332e+00   1.940216e+00
   O   1.853393e+00   5.852447e+00  -7.931578e-19
  Sr  -5.972300e-18   3.896332e+00   3.896332e+00
  Ti   1.948166e+00   5.844498e+00   5.844498e+00
   O   3.117397e-18   5.840546e+00   5.749725e+00
   O   1.952117e+00   3.896332e+00   5.852447e+00
   O   2.042939e+00   5.836548e+00   3.896332e+00
  Sr   3.896332e+00   8.402683e-18  -4.658547e-19
  Ti   5.844498e+00   1.948166e+00   1.948166e+00
   O   3.896332e+00   1.952117e+00   2.042939e+00
   O   5.840546e+00   2.646398e-18   1.940216e+00
   O   5.749725e+00   1.956115e+00  -7.931578e-19
  Sr   3.896332e+00  -8.402683e-18   3.896332e+00
  Ti   5.844498e+00   1.948166e+00   5.844498e+00
   O   3.896332e+00   1.944214e+00   5.749725e+00
   O   5.848449e+00  -2.646398e-18   5.852447e+00
   O   5.939271e+00   1.940216e+00   3.896332e+00
  Sr   3.896332e+00   3.896332e+00   4.658547e-19
  Ti   5.844498e+00   5.844498e+00   1.948166e+00
   O   3.896332e+00   5.840546e+00   1.853393e+00
   O   5.848449e+00   3.896332e+00   1.956115e+00
   O   5.939271e+00   5.836548e+00   7.931578e-19
  Sr   3.896332e+00   3.896332e+00   3.896332e+00
  Ti   5.844498e+00   5.844498e+00   5.844498e+00
   O   3.896332e+00   5.848449e+00   5.939271e+00
   O   5.840546e+00   3.896332e+00   5.836548e+00
   O   5.749725e+00   5.852447e+00   3.896332e+00
40
Mode    1 at (     0.5     0.5     0.5), Frequency (cm^-1) = -76.4069, Time step =    8
  Sr  -5.080342e-18  -7.147749e-18   3.962796e-19
  Ti   1.948166e+00   1.948166e+00   1.948166e+00
   O   2.651816e-18   1.944805e+00   1.867547e+00
   O   1.951527e+00  -2.251160e-18   1.954928e+00
   O   2.028784e+00   1.941404e+00   6.747003e-19
  Sr   5.080342e-18   7.147749e-18   3.896332e+00
  Ti   1.948166e+00   1.948166e+00   5.844498e+00
   O  -2.651816e-18   1.951527e+00   5.925116e+00
   O   1.944805e+00   2.251160e-18   5.837735e+00
   O   1.867547e+00   1.954928e+00   3.896332e+00
  Sr   5.080342e-18   3.896332e+00  -3.962796e-19
  Ti   1.948166e+00   5.844498e+00   1.948166e+00
   O  -2.651816e-18   5.847859e+00   2.028784e+00
   O   1.944805e+00   3.896332e+00   1.941404e+00
   O   1.867547e+00   5.851260e+00  -6.747003e-19
  Sr  -5.080342e-18   3.896332e+00   3.896332e+00
  Ti   1.948166e+00   5.844498e+00   5.844498e+00
   O   2.651816e-18   5.841136e+00   5.763879e+00
   O   1.951527e+00   3.896332e+00   5.851260e+00
   O   2.028784e+00   5.837735e+00   3.896332e+00
  Sr   3.896332e+00   7.147749e-18  -3.962796e-19
  Ti   5.844498e+00   1.948166e+00   1.948166e+00
   O   3.896332e+00   1.951527e+00   2.028784e+00
   O   5.841136e+00   2.251160e-18   1.941404e+00
   O   5.763879e+00   1.954928e+00  -6.747003e-19
  Sr   3.896332e+00  -7.147749e-18   3.896332e+00
  Ti   5.844498e+00   1.948166e+00   5.844498e+00
   O   3.896332e+00   1.944805e+00   5.763879e+00
   O   5.847859e+00  -2.251160e-18   5.851260e+00
   O   5.925116e+00   1.941404e+00   3.896332e+00
  Sr   3.896332e+00   3.896332e+00   3.962796e-19
  Ti   5.844498e+00   5.844498e+00   1.948166e+00
   O   3.896332e+00   5.841136e+00   1.867547e+00
   O   5.847859e+00   3.896332e+00   1.954928e+00
   O   5.925116e+00   5.837735e+00   6.747003e-19
  Sr   3.896332e+00   3.896332e+00   3.896332e+00
  Ti   5.844498e+00   5.844498e+00   5.844498e+00
   O   3.896332e+00   5.847859e+00   5.925116e+00
   O   5.841136e+00   3.896332e+00   5.837735e+00
   O   5.763879e+00   5.851260e+00   3.896332e+00
40
Mode    1 at (     0.5     0.5     0.5), Frequency (cm^-1) = -76.4069, Time step =    9
  Sr  -3.691085e-18  -5.193144e-18   2.879140e-19
  Ti   1.948166e+00   1.948166e+00   1.948166e+00
   O   1.926657e-18   1.945724e+00   1.889593e+00
   O   1.950608e+00  -1.635564e-18   1.953079e+00
   O   2.006739e+00   1.943253e+00   4.901985e-19
  Sr   3.691085e-18   5.193144e-18   3.896332e+00
  Ti   1.948166e+00   1.948166e+00   5.844498e+00
   O  -1.926657e-18   1.950608e+00   5.903071e+00
   O   1.945724e+00   1.635564e-18   5.839585e+00
   O   1.889593e+00   1.953079e+00   3.896332e+00
  Sr   3.691085e-18   3.896332e+00  -2.879140e-19
  Ti   1.948166e+00   5.844498e+00   1.948166e+00
   O  -1.926657e-18   5.846940e+00   2.006739e+00
   O   1.945724e+00   3.896332e+00   1.943253e+00
   O   1.889593e+00   5.849411e+00  -4.901985e-19
  Sr  -3.691085e-18   3.896332e+00   3.896332e+00
  Ti   1.948166e+00   5.844498e+00   5.844498e+00
   O   1.926657e-18   5.842056e+00   5.785925e+00
   O   1.950608e+00   3.896332e+00   5.849411e+00
   O   2.006739e+00   5.839585e+00   3.896332e+00
  Sr   3.896332e+00   5.193144e-18  -2.879140e-19
  Ti   5.844498e+00   1.948166e+00   1.948166e+00
   O   3.896332e+00   1.950608e+00   2.006739e+00
   O   5.842056e+00   1.635564e-18   1.943253e+00
   O   5.785925e+00   1.953079e+00  -4.901985e-19
  Sr   3.896332e+00  -5.193144e-18   3.896332e+00
  Ti   5.844498e+00   1.948166e+00   5.844498e+00
   O   3.896332e+00   1.945724e+00   5.785925e+00
   O   5.846940e+00  -1.635564e-18   5.849411e+00
   O   5.903071e+00   1.943253e+00   3.896332e+00
  Sr   3.896332e+00   3.896332e+00   2.879140e-19
  Ti   5.844498e+00   5.844498e+00   1.948166e+00
   O   3.896332e+00   5.842056e+00   1.889593e+00
   O   5.846940e+00   3.896332e+00   1.953079e+00
   O   5.903071e+00   5.839585e+00   4.901985e-19
  Sr   3.896332e+00   3.896332e+00   3.896332e+00
  Ti   5.844498e+00   5.844498e+00   5.844498e+00
   O   3.896332e+00   5.846940e+00   5.903071e+00
   O   5.842056e+00   3.896332e+00   5.839585e+00
   O   5.785925e+00   5.849411e+00   3.896332e+00
40
Mode    1 at (     0.5     0.5     0.5), Frequency (cm^-1) = -76.4069, Time step =   10
  Sr  -1.940518e-18  -2.730197e-18   1.513654e-19
  Ti   1.948166e+00   1.948166e+00   1.948166e+00
   O   1.012904e-18   1.946882e+00   1.917372e+00
   O   1.949450e+00  -8.598667e-19   1.950749e+00
   O   1.978959e+00   1.945583e+00   2.577126e-19
  Sr   1.940518e-18   2.730197e-18   3.896332e+00
  Ti   1.948166e+00   1.948166e+00   5.844498e+00
   O  -1.012904e-18   1.949450e+00   5.875291e+00
   O   1.946882e+00   8.598667e-19   5.841915e+00
   O   1.917372e+00   1.950749e+00   3.896332e+00
  Sr   1.940518e-18   3.896332e+00  -1.513654e-19
  Ti   1.948166e+00   5.844498e+00   1.948166e+00
   O  -1.012904e-18   5.845782e+00   1.978959e+00
   O   1.946882e+00   3.896332e+00   1.945583e+00
   O   1.917372e+00   5.847081e+00  -2.577126e-19
  Sr  -1.940518e-18   3.896332e+00   3.896332e+00
  Ti   1.948166e+00   5.844498e+00   5.844498e+00
   O   1.012904e-18   5.843214e+00   5.813704e+00
   O   1.949450e+00   3.896332e+00   5.847081e+00
   O   1.978959e+00   5.841915e+00   3.896332e+00
  Sr   3.896332e+00   2.730197e-18  -1.513654e-19
  Ti   5.844498e+00   1.948166e+00   1.948166e+00
   O   3.896332e+00   1.949450e+00   1.978959e+00
   O   5.843214e+00   8.598667e-19   1.945583e+00
   O   5.813704e+00   1.950749e+00  -2.577126e-19
  Sr   3.896332e+00  -2.730197e-18   3.896332e+00
  Ti   5.844498e+00   1.948166e+00   5.844498e+00
   O   3.896332e+00   1.946882e+00   5.813704e+00
   O   5.845782e+00  -8.598667e-19   5.847081e+00
   O   5.875291e+00   1.945583e+00   3.896332e+00
  Sr   3.896332e+00   3.896332e+00   1.513654e-19
  Ti   5.844498e+00   5.844498e+00   1.948166e+00
   O   3.896332e+00   5.843214e+00   1.917372e+00
   O   5.845782e+00   3.896332e+00   1.950749e+00
   O   5.875291e+00   5.841915e+00   2.577126e-19
  Sr   3.896332e+00   3.896332e+00   3.896332e+00
  Ti   5.844498e+00   5.844498e+00   5.844498e+00
   O   3.896332e+00   5.845782e+00   5.875291e+00
   O   5.843214e+00   3.896332e+00   5.841915e+00
   O   5.813704e+00   5.847081e+00   3.896332e+00
40
Mode    1 at (     0.5     0.5     0.5), Frequency (cm^-1) = -76.4069, Time step =   11
  Sr  -1.538070e-33  -2.163976e-33   5.998670e-35
  Ti   1.948166e+00   1.948166e+00   1.948166e+00
   O   4.014178e-34   1.948166e+00   1.948166e+00
   O   1.948166e+00  -6.815373e-34   1.948166e+00
   O   1.948166e+00   1.948166e+00   1.021325e-34
  Sr   2.307105e-33   3.245965e-33   3.896332e+00
  Ti   1.948166e+00   1.948166e+00   5.844498e+00
   O  -8.028356e-34   1.948166e+00   5.844498e+00
   O   1.948166e+00   1.022306e-33   5.844498e+00
   O   1.948166e+00   1.948166e+00   3.896332e+00
  Sr   2.307105e-33   3.896332e+00  -1.199734e-34
  Ti   1.948166e+00   5.844498e+00   1.948166e+00
   O  -8.028356e-34   5.844498e+00   1.948166e+00
   O   1.948166e+00   3.896332e+00   1.948166e+00
   O   1.948166e+00   5.844498e+00  -2.042651e-34
  Sr  -3.076140e-33   3.896332e+00   3.896332e+00
  Ti   1.948166e+00   5.844498e+00   5.844498e+00
   O   1.204253e-33   5.844498e+00   5.844498e+00
   O   1.948166e+00   3.896332e+00   5.844498e+00
   O   1.948166e+00   5.844498e+00   3.896332e+00
  Sr   3.896332e+00   3.245965e-33  -1.199734e-34
  Ti   5.844498e+00   1.948166e+00   1.948166e+00
   O   3.896332e+00   1.948166e+00   1.948166e+00
   O   5.844498e+00   1.022306e-33   1.948166e+00
   O   5.844498e+00   1.948166e+00  -2.042651e-34
  Sr   3.896332e+00  -4.327953e-33   3.896332e+00
  Ti   5.844498e+00   1.948166e+00   5.844498e+00
   O   3.896332e+00   1.948166e+00   5.844498e+00
   O   5.844498e+00  -1.363075e-33   5.844498e+00
   O   5.844498e+00   1.948166e+00   3.896332e+00
  Sr   3.896332e+00   3.896332e+00   1.799601e-34
  Ti   5.844498e+00   5.844498e+00   1.948166e+00
   O   3.896332e+00   5.844498e+00   1.948166e+00
   O   5.844498e+00   3.896332e+00   1.948166e+00
   O   5.844498e+00   5.844498e+00   3.063976e-34
  Sr   3.896332e+00   3.896332e+00   3.896332e+00
  Ti   5.844498e+00   5.844498e+00   5.844498e+00
   O   3.896332e+00   5.844498e+00   5.844498e+00
   O   5.844498e+00   3.896332e+00   5.844498e+00
   O   5.844498e+00   5.844498e+00   3.896332e+00
40
Mode    1 at (     0.5     0.5     0.5), Frequency (cm^-1) = -76.4069, Time step =   12
  Sr   1.940518e-18   2.730197e-18  -1.513654e-19
  Ti   1.948166e+00   1.948166e+00   1.948166e+00
   O  -1.012904e-18   1.949450e+00   1.978959e+00
   O   1.946882e+00   8.598667e-19   1.945583e+00
   O   1.917372e+00   1.950749e+00  -2.577126e-19
  Sr  -1.940518e-18  -2.730197e-18   3.896332e+00
  Ti   1.948166e+00   1.948166e+00   5.844498e+00
   O   1.012904e-18   1.946882e+00   5.813704e+00
   O   1.949450e+00  -8.598667e-19   5.847081e+00
   O   1.978959e+00   1.945583e+00   3.896332e+00
  Sr  -1.940518e-18   3.896332e+00   1.513654e-19
  Ti   1.948166e+00   5.844498e+00   1.948166e+00
   O   1.012904e-18   5.843214e+00   1.917372e+00
   O   1.949450e+00   3.896332e+00   1.950749e+00
   O   1.978959e+00   5.841915e+00   2.577126e-19
  Sr   1.940518e-18   3.896332e+00   3.896332e+00
  Ti   1.948166e+00   5.844498e+00   5.844498e+00
   O  -1.012904e-18   5.845782e+00   5.875291e+00
   O   1.946882e+00   3.896332e+00   5.841915e+00
   O   1.917372e+00   5.847081e+00   3.896332e+00
  Sr   3.896332e+00  -2.730197e-18   1.513654e-19
  Ti   5.844498e+00   1.948166e+00   1.948166e+00
   O   3.896332e+00   1.946882e+00   1.917372e+00
   O   5.845782e+00  -8.598667e-19   1.950749e+00
   O   5.875291e+00   1.945583e+00   2.577126e-19
  Sr   3.896332e+00   2.730197e-18   3.896332e+00
  Ti   5.844498e+00   1.948166e+00   5.844498e+00
   O   3.896332e+00   1.949450e+00   5.875291e+00
   O   5.843214e+00   8.598667e-19   5.841915e+00
   O   5.813704e+00   1.950749e+00   3.896332e+00
  Sr   3.896332e+00   3.896332e+00  -1.513654e-19
  Ti   5.844498e+00   5.844498e+00   1.948166e+00
   O   3.896332e+00   5.845782e+00   1.978959e+00
   O   5.843214e+00   3.896332e+00   1.945583e+00
   O   5.813704e+00   5.847081e+00  -2.577126e-19
  Sr   3.896332e+00   3.896332e+00   3.896332e+00
  Ti   5.844498e+00   5.844498e+00   5.844498e+00
   O   3.896332e+00   5.843214e+00   5.813704e+00
   O   5.845782e+00   3.896332e+00   5.847081e+00
   O   5.875291e+00   5.841915e+00   3.896332e+00
40
Mode    1 at (     0.5     0.5     0.5), Frequency (cm^-1) = -76.4069, Time step =   13
  Sr   3.691085e-18   5.193144e-18  -2.879140e-19
  Ti   1.948166e+00   1.948166e+00   1.948166e+00
   O  -1.926657e-18   1.950608e+00   2.006739e+00
   O   1.945724e+00   1.635564e-18   1.943253e+00
   O   1.889593e+00   1.953079e+00  -4.901985e-19
  Sr  -3.691085e-18  -5.193144e-18   3.896332e+00
  Ti   1.948166e+00   1.948166e+00   5.844498e+00
   O   1.926657e-18   1.945724e+00   5.785925e+00
   O   1.950608e+00  -1.635564e-18   5.849411e+00
   O   2.006739e+00   1.943253e+00   3.896332e+00
  Sr  -3.691085e-18   3.896332e+00   2.879140e-19
  Ti   1.948166e+00   5.844498e+00   1.948166e+00
   O   1.926657e-18   5.842056e+00   1.889593e+00
   O   1.950608e+00   3.896332e+00   1.953079e+00
   O   2.006739e+00   5.839585e+00   4.901985e-19
  Sr   3.691085e-18   3.896332e+00   3.896332e+00
  Ti   1.948166e+00   5.844498e+00   5.844498e+00
   O  -1.926657e-18   5.846940e+00   5.903071e+00
   O   1.945724e+00   3.896332e+00   5.839585e+00
   O   1.889593e+00   5.849411e+00   3.896332e+00
  Sr   3.896332e+00  -5.193144e-18   2.879140e-19
  Ti   5.844498e+00   1.948166e+00   1.948166e+00
   O   3.896332e+00   1.945724e+00   1.889593e+00
   O   5.846940e+00  -1.635564e-18   1.953079e+00
   O   5.903071e+00   1.943253e+00   4.901985e-19
  Sr   3.896332e+00   5.193144e-18   3.896332e+00
  Ti   5.844498e+00   1.948166e+00   5.844498e+00
   O   3.896332e+00   1.950608e+00   5.903071e+00
   O   5.842056e+00   1.635564e-18   5.839585e+00
   O   5.785925e+00   1.953079e+00   3.896332e+00
  Sr   3.896332e+00   3.896332e+00  -2.879140e-19
  Ti   5.844498e+00   5.844498e+00   1.948166e+00
   O   3.896332e+00   5.846940e+00   2.006739e+00
   O   5.842056e+00   3.896332e+00   1.943253e+00
   O   5.785925e+00   5.849411e+00  -4.901985e-19
  Sr   3.896332e+00   3.896332e+00   3.896332e+00
  Ti   5.844498e+00   5.844498e+00   5.844498e+00
   O   3.896332e+00   5.842056e+00   5.785925e+00
   O   5.846940e+00   3.896332e+00   5.849411e+00
   O   5.903071e+00   5.839585e+00   3.896332e+00
40
Mode    1 at (     0.5     0.5     0.5), Frequency (cm^-1) = -76.4069, Time step =   14
  Sr   5.080342e-18   7.147749e-18  -3.962796e-19
  Ti   1.948166e+00   1.948166e+00   1.948166e+00
   O  -2.651816e-18   1.951527e+00   2.028784e+00
   O   1.944805e+00   2.251160e-18   1.941404e+00
   O   1.867547e+00   1.954928e+00  -6.747003e-19
  Sr  -5.080342e-18  -7.147749e-18   3.896332e+00
  Ti   1.948166e+00   1.948166e+00   5.844498e+00
   O   2.651816e-18   1.944805e+00   5.763879e+00
   O   1.951527e+00  -2.251160e-18   5.851260e+00
   O   2.028784e+00   1.941404e+00   3.896332e+00
  Sr  -5.080342e-18   3.896332e+00   3.962796e-19
  Ti   1.948166e+00   5.844498e+00   1.948166e+00
   O   2.651816e-18   5.841136e+00   1.867547e+00
   O   1.951527e+00   3.896332e+00   1.954928e+00
   O   2.028784e+00   5.837735e+00   6.747003e-19
  Sr   5.080342e-18   3.896332e+00   3.896332e+00
  Ti   1.948166e+00   5.844498e+00   5.844498e+00
   O  -2.651816e-18   5.847859e+00   5.925116e+00
   O   1.944805e+00   3.896332e+00   5.837735e+00
   O   1.867547e+00   5.851260e+00   3.896332e+00
  Sr   3.896332e+00  -7.147749e-18   3.962796e-19
  Ti   5.844498e+00   1.948166e+00   1.948166e+00
   O   3.896332e+00   1.944805e+00   1.867547e+00
   O   5.847859e+00  -2.251160e-18   1.954928e+00
   O   5.925116e+00   1.941404e+00   6.747003e-19
  Sr   3.896332e+00   7.147749e-18   3.896332e+00
  Ti   5.844498e+00   1.948166e+00   5.844498e+00
   O   3.896332e+00   1.951527e+00   5.925116e+00
   O   5.841136e+00   2.251160e-18   5.837735e+00
   O   5.763879e+00   1.954928e+00   3.896332e+00
  Sr   3.896332e+00   3.896332e+00  -3.962796e-19
  Ti   5.844498e+00   5.844498e+00   1.948166e+00
   O   3.896332e+00   5.847859e+00   2.028784e+00
   O   5.841136e+00   3.896332e+00   1.941404e+00
   O   5.763879e+00   5.851260e+00  -6.747003e-19
  Sr   3.896332e+00   3.896332e+00   3.896332e+00
  Ti   5.844498e+00   5.844498e+00   5.844498e+00
   O   3.896332e+00   5.841136e+00   5.763879e+00
   O   5.847859e+00   3.896332e+00   5.851260e+00
   O   5.925116e+00   5.837735e+00   3.896332e+00
40
Mode    1 at (     0.5     0.5     0.5), Frequency (cm^-1) = -76.4069, Time step =   15
  Sr   5.972300e-18   8.402683e-18  -4.658547e-19
  Ti   1.948166e+00   1.948166e+00   1.948166e+00
   O  -3.117397e-18   1.952117e+00   2.042939e+00
   O   1.944214e+00   2.646398e-18   1.940216e+00
   O   1.853393e+00   1.956115e+00  -7.931578e-19
  Sr  -5.972300e-18  -8.402683e-18   3.896332e+00
  Ti   1.948166e+00   1.948166e+00   5.844498e+00
   O   3.117397e-18   1.944214e+00   5.749725e+00
   O   1.952117e+00  -2.646398e-18   5.852447e+00
   O   2.042939e+00   1.940216e+00   3.896332e+00
  Sr  -5.972300e-18   3.896332e+00   4.658547e-19
  Ti   1.948166e+00   5.844498e+00   1.948166e+00
   O   3.117397e-18   5.840546e+00   1.853393e+00
   O   1.952117e+00   3.896332e+00   1.956115e+00
   O   2.042939e+00   5.836548e+00   7.931578e-19
  Sr   5.972300e-18   3.896332e+00   3.896332e+00
  Ti   1.948166e+00   5.844498e+00   5.844498e+00
   O  -3.117397e-18   5.848449e+00   5.939271e+00
   O   1.944214e+00   3.896332e+00   5.836548e+00
   O   1.853393e+00   5.852447e+00   3.896332e+00
  Sr   3.896332e+00  -8.402683e-18   4.658547e-19
  Ti   5.844498e+00   1.948166e+00   1.948166e+00
   O   3.896332e+00   1.944214e+00   1.853393e+00
   O   5.848449e+00  -2.646398e-18   1.956115e+00
   O   5.939271e+00   1.940216e+00   7.931578e-19
  Sr   3.896332e+00   8.402683e-18   3.896332e+00
  Ti   5.844498e+00   1.948166e+00   5.844498e+00
   O   3.896332e+00   1.952117e+00   5.939271e+00
   O   5.840546e+00   2.646398e-18   5.836548e+00
   O   5.749725e+00   1.956115e+00   3.896332e+00
  Sr   3.896332e+00   3.896332e+00  -4.658547e-19
  Ti   5.844498e+00   5.844498e+00   1.948166e+00
   O   3.896332e+00   5.848449e+00   2.042939e+00
   O   5.840546e+00   3.896332e+00   1.940216e+00
   O   5.749725e+00   5.852447e+00  -7.931578e-19
  Sr   3.896332e+00   3.896332e+00   3.896332e+00
  Ti   5.844498e+00   5.844498e+00   5.844498e+00
   O   3.896332e+00   5.840546e+00   5.749725e+00
   O   5.848449e+00   3.896332e+00   5.852447e+00
   O   5.939271e+00   5.836548e+00   3.896332e+00
40
Mode    1 at (     0.5     0.5     0.5), Frequency (cm^-1) = -76.4069, Time step =   16
  Sr   6.279648e-18   8.835104e-18  -4.898286e-19
  Ti   1.948166e+00   1.948166e+00   1.948166e+00
   O  -3.277825e-18   1.952321e+00   2.047816e+00
   O   1.944011e+00   2.782587e-18   1.939807e+00
   O   1.848516e+00   1.956525e+00  -8.339755e-19
  Sr  -6.279648e-18  -8.835104e-18   3.896332e+00
  Ti   1.948166e+00   1.948166e+00   5.844498e+00
   O   3.277825e-18   1.944011e+00   5.744848e+00
   O   1.952321e+00  -2.782587e-18   5.852856e+00
   O   2.047816e+00   1.939807e+00   3.896332e+00
  Sr  -6.279648e-18   3.896332e+00   4.898286e-19
  Ti   1.948166e+00   5.844498e+00   1.948166e+00
   O   3.277825e-18   5.840343e+00   1.848516e+00
   O   1.952321e+00   3.896332e+00   1.956525e+00
   O   2.047816e+00   5.836139e+00   8.339755e-19
  Sr   6.279648e-18   3.896332e+00   3.896332e+00
  Ti   1.948166e+00   5.844498e+00   5.844498e+00
   O  -3.277825e-18   5.848653e+00   5.944148e+00
   O   1.944011e+00   3.896332e+00   5.836139e+00
   O   1.848516e+00   5.852856e+00   3.896332e+00
  Sr   3.896332e+00  -8.835104e-18   4.898286e-19
  Ti   5.844498e+00   1.948166e+00   1.948166e+00
   O   3.896332e+00   1.944011e+00   1.848516e+00
   O   5.848653e+00  -2.782587e-18   1.956525e+00
   O   5.944148e+00   1.939807e+00   8.339755e-19
  Sr   3.896332e+00   8.835104e-18   3.896332e+00
  Ti   5.844498e+00   1.948166e+00   5.844498e+00
   O   3.896332e+00   1.952321e+00   5.944148e+00
   O   5.840343e+00   2.782587e-18   5.836139e+00
   O   5.744848e+00   1.956525e+00   3.896332e+00
  Sr   3.896332e+00   3.896332e+00  -4.898286e-19
  Ti   5.844498e+00   5.844498e+00   1.948166e+00
   O   3.896332e+00   5.848653e+00   2.047816e+00
   O   5.840343e+00   3.896332e+00   1.939807e+00
   O   5.744848e+00   5.852856e+00  -8.339755e-19
  Sr   3.896332e+00   3.896332e+00   3.896332e+00
  Ti   5.844498e+00   5.844498e+00   5.844498e+00
   O   3.896332e+00   5.840343e+00   5.744848e+00
   O   5.848653e+00   3.896332e+00   5.852856e+00
   O   5.944148e+00   5.836139e+00   3.896332e+00
40
Mode    1 at (     0.5     0.5     0.5), Frequency (cm^-1) = -76.4069, Time step =   17
  Sr   5.972300e-18   8.402683e-18  -4.658547e-19
  Ti   1.948166e+00   1.948166e+00   1.948166e+00
   O  -3.117397e-18   1.952117e+00   2.042939e+00
   O   1.944214e+00   2.646398e-18   1.940216e+00
   O   1.853393e+00   1.956115e+00  -7.931578e-19
  Sr  -5.972300e-18  -8.402683e-18   3.896332e+00
  Ti   1.948166e+00   1.948166e+00   5.844498e+00
   O   3.117397e-18   1.944214e+00   5.749725e+00
   O   1.952117e+00  -2.646398e-18   5.852447e+00
   O   2.042939e+00   1.940216e+00   3.896332e+00
  Sr  -5.972300e-18   3.896332e+00   4.658547e-19
  Ti   1.948166e+00   5.844498e+00   1.948166e+00
   O   3.117397e-18   5.840546e+00   1.853393e+00
   O   1.952117e+00   3.896332e+00   1.956115e+00
   O   2.042939e+00   5.836548e+00   7.931578e-19
  Sr   5.972300e-18   3.896332e+00   3.896332e+00
  Ti   1.948166e+00   5.844498e+00   5.844498e+00
   O  -3.117397e-18   5.848449e+00   5.939271e+00
   O   1.944214e+00   3.896332e+00   5.836548e+00
   O   1.853393e+00   5.852447e+00   3.896332e+00
  Sr   3.896332e+00  -8.402683e-18   4.658547e-19
  Ti   5.844498e+00   1.948166e+00   1.948166e+00
   O   3.896332e+00   1.944214e+00   1.853393e+00
   O   5.848449e+00  -2.646398e-18   1.956115e+00
   O   5.939271e+00   1.940216e+00   7.931578e-19
  Sr   3.896332e+00   8.402683e-18   3.896332e+00
  Ti   5.844498e+00   1.948166e+00   5.844498e+00
   O   3.896332e+00   1.952117e+00   5.939271e+00
   O   5.840546e+00   2.646398e-18   5.836548e+00
   O   5.749725e+00   1.956115e+00   3.896332e+00
  Sr   3.896332e+00   3.896332e+00  -4.658547e-19
  Ti   5.844498e+00   5.844498e+00   1.948166e+00
   O   3.896332e+00   5.848449e+00   2.042939e+00
   O   5.840546e+00   3.896332e+00   1.940216e+00
   O   5.749725e+00   5.852447e+00  -7.931578e-19
  Sr   3.896332e+00   3.896332e+00   3.896332e+00
  Ti   5.844498e+00   5.844498e+00   5.844498e+00
   O   3.896332e+00   5.840546e+00   5.749725e+00
   O   5.848449e+00   3.896332e+00   5.852447e+00
   O   5.939271e+00   5.836548e+00   3.896332e+00
40
Mode    1 at (     0.5     0.5     0.5), Frequency (cm^-1) = -76.4069, Time step =   18
  Sr   5.080342e-18   7.147749e-18  -3.962796e-19
  Ti   1.948166e+00   1.948166e+00   1.948166e+00
   O  -2.651816e-18   1.951527e+00   2.028784e+00
   O   1.944805e+00   2.251160e-18   1.941404e+00
   O   1.867547e+00   1.954928e+00  -6.747003e-19
  Sr  -5.080342e-18  -7.147749e-18   3.896332e+00
  Ti   1.948166e+00   1.948166e+00   5.844498e+00
   O   2.651816e-18   1.944805e+00   5.763879e+00
   O   1.951527e+00  -2.251160e-18   5.851260e+00
   O   2.028784e+00   1.941404e+00   3.896332e+00
  Sr  -5.080342e-18   3.896332e+00   3.962796e-19
  Ti   1.948166e+00   5.844498e+00   1.948166e+00
   O   2.651816e-18   5.841136e+00   1.867547e+00
   O   1.951527e+00   3.896332e+00   1.954928e+00
   O   2.028784e+00   5.837735e+00   6.747003e-19
  Sr   5.080342e-18   3.896332e+00   3.896332e+00
  Ti   1.948166e+00   5.844498e+00   5.844498e+00
   O  -2.651816e-18   5.847859e+00   5.925116e+00
   O   1.944805e+00   3.896332e+00   5.837735e+00
   O   1.867547e+00   5.851260e+00   3.896332e+00
  Sr   3.896332e+00  -7.147749e-18   3.962796e-19
  Ti   5.844498e+00   1.948166e+00   1.948166e+00
   O   3.896332e+00   1.944805e+00   1.867547e+00
   O   5.847859e+00  -2.251160e-18   1.954928e+00
   O   5.925116e+00   1.941404e+00   6.747003e-19
  Sr   3.896332e+00   7.147749e-18   3.896332e+00
  Ti   5.844498e+00   1.948166e+00   5.844498e+00
   O   3.896332e+00   1.951527e+00   5.925116e+00
   O   5.841136e+00   2.251160e-18   5.837735e+00
   O   5.763879e+00   1.954928e+00   3.896332e+00
  Sr   3.896332e+00   3.896332e+00  -3.962796e-19
  Ti   5.844498e+00   5.844498e+00   1.948166e+00
   O   3.896332e+00   5.847859e+00   2.028784e+00
   O   5.841136e+00   3.896332e+00   1.941404e+00
   O   5.763879e+00   5.851260e+00  -6.747003e-19
  Sr   3.896332e+00   3.896332e+00   3.896332e+00
  Ti   5.844498e+00   5.844498e+00   5.844498e+00
   O   3.896332e+00   5.841136e+00   5.763879e+00
   O   5.847859e+00   3.896332e+00   5.851260e+00
   O   5.925116e+00   5.837735e+00   3.896332e+00
40
Mode    1 at (     0.5     0.5     0.5), Frequency (cm^-1) = -76.4069, Time step =   19
  Sr   3.691085e-18   5.193144e-18  -2.879140e-19
  Ti   1.948166e+00   1.948166e+00   1.948166e+00
   O  -1.926657e-18   1.950608e+00   2.006739e+00
   O   1.945724e+00   1.635564e-18   1.943253e+00
   O   1.889593e+00   1.953079e+00  -4.901985e-19
  Sr  -3.691085e-18  -5.193144e-18   3.896332e+00
  Ti   1.948166e+00   1.948166e+00   5.844498e+00
   O   1.926657e-18   1.945724e+00   5.785925e+00
   O   1.950608e+00  -1.635564e-18   5.849411e+00
   O   2.006739e+00   1.943253e+00   3.896332e+00
  Sr  -3.691085e-18   3.896332e+00   2.879140e-19
  Ti   1.948166e+00   5.844498e+00   1.948166e+00
   O   1.926657e-18   5.842056e+00   1.889593e+00
   O   1.950608e+00   3.896332e+00   1.953079e+00
   O   2.006739e+00   5.839585e+00   4.901985e-19
  Sr   3.691085e-18   3.896332e+00   3.896332e+00
  Ti   1.948166e+00   5.844498e+00   5.844498e+00
   O  -1.926657e-18   5.846940e+00   5.903071e+00
   O   1.945724e+00   3.896332e+00   5.839585e+00
   O   1.889593e+00   5.849411e+00   3.896332e+00
  Sr   3.896332e+00  -5.193144e-18   2.879140e-19
  Ti   5.844498e+00   1.948166e+00   1.948166e+00
   O   3.896332e+00   1.945724e+00   1.889593e+00
   O   5.846940e+00  -1.635564e-18   1.953079e+00
   O   5.903071e+00   1.943253e+00   4.901985e-19
  Sr   3.896332e+00   5.193144e-18   3.896332e+00
  Ti   5.844498e+00   1.948166e+00   5.844498e+00
   O   3.896332e+00   1.950608e+00   5.903071e+00
   O   5.842056e+00   1.635564e-18   5.839585e+00
   O   5.785925e+00   1.953079e+00   3.896332e+00
  Sr   3.896332e+00   3.896332e+00  -2.879140e-19
  Ti   5.844498e+00   5.844498e+00   1.948166e+00
   O   3.896332e+00   5.846940e+00   2.006739e+00
   O   5.842056e+00   3.896332e+00   1.943253e+00
   O   5.785925e+00   5.849411e+00  -4.901985e-19
  Sr   3.896332e+00   3.896332e+00   3.896332e+00
  Ti   5.844498e+00   5.844498e+00   5.844498e+00
   O   3.896332e+00   5.842056e+00   5.785925e+00
   O   5.846940e+00   3.896332e+00   5.849411e+00
   O   5.903071e+00   5.839585e+00   3.896332e+00
40
Mode    1 at (     0.5     0.5     0.5), Frequency (cm^-1) = -76.4069, Time step =   20
  Sr   1.940518e-18   2.730197e-18  -1.513654e-19
  Ti   1.948166e+00   1.948166e+00   1.948166e+00
   O  -1.012904e-18   1.949450e+00   1.978959e+00
   O   1.946882e+00   8.598667e-19   1.945583e+00
   O   1.917372e+00   1.950749e+00  -2.577126e-19
  Sr  -1.940518e-18  -2.730197e-18   3.896332e+00
  Ti   1.948166e+00   1.948166e+00   5.844498e+00
   O   1.012904e-18   1.946882e+00   5.813704e+00
   O   1.949450e+00  -8.598667e-19   5.847081e+00
   O   1.978959e+00   1.945583e+00   3.896332e+00
  Sr  -1.940518e-18   3.896332e+00   1.513654e-19
  Ti   1.948166e+00   5.844498e+00   1.948166e+00
   O   1.012904e-18   5.843214e+00   1.917372e+00
   O   1.949450e+00   3.896332e+00   1.950749e+00
   O   1.978959e+00   5.841915e+00   2.577126e-19
  Sr   1.940518e-18   3.896332e+00   3.896332e+00
  Ti   1.948166e+00   5.844498e+00   5.844498e+00
   O  -1.012904e-18   5.845782e+00   5.875291e+00
   O   1.946882e+00   3.896332e+00   5.841915e+00
   O   1.917372e+00   5.847081e+00   3.896332e+00
  Sr   3.896332e+00  -2.730197e-18   1.513654e-19
  Ti   5.844498e+00   1.948166e+00   1.948166e+00
   O   3.896332e+00   1.946882e+00   1.917372e+00
   O   5.845782e+00  -8.598667e-19   1.950749e+00
   O   5.875291e+00   1.945583e+00   2.577126e-19
  Sr   3.896332e+00   2.730197e-18   3.896332e+00
  Ti   5.844498e+00   1.948166e+00   5.844498e+00
   O   3.896332e+00   1.949450e+00   5.875291e+00
   O   5.843214e+00   8.598667e-19   5.841915e+00
   O   5.813704e+00   1.950749e+00   3.896332e+00
  Sr   3.896332e+00   3.896332e+00  -1.513654e-19
  Ti   5.844498e+00   5.844498e+00   1.948166e+00
   O   3.896332e+00   5.845782e+00   1.978959e+00
   O   5.843214e+00   3.896332e+00   1.945583e+00
   O   5.813704e+00   5.847081e+00  -2.577126e-19
  Sr   3.896332e+00   3.896332e+00   3.896332e+00
  Ti   5.844498e+00   5.844498e+00   5.844498e+00
   O   3.896332e+00   5.843214e+00   5.813704e+00
   O   5.845782e+00   3.896332e+00   5.847081e+00
   O   5.875291e+00   5.841915e+00   3.896332e+00
